0 1
0 2
0 469
0 1
0 2
0 469
1 6
1 385
1 6
1 385
2 3
2 3
3 4
3 419
3 422
3 4
3 419
3 422
4 5
4 98
4 420
4 5
4 98
4 420
5 6
5 6
5 98
5 98
7 8
7 9
7 79
7 8
7 9
7 79
8 33
8 33
9 10
9 84
9 10
9 84
10 11
10 84
10 110
10 84
10 11
10 110
11 12
11 110
11 110
11 12
12 13
12 95
12 108
12 13
12 108
12 95
13 14
13 94
13 95
13 95
13 14
13 94
14 15
14 16
14 77
14 15
14 16
14 77
16 17
16 17
17 77
17 18
17 77
17 3254
17 18
17 3254
18 19
18 3254
18 3254
18 19
19 20
19 23
19 20
19 23
20 21
20 22
20 21
20 22
23 24
23 25
23 24
23 25
25 26
25 27
25 26
25 27
27 28
27 29
27 28
27 29
29 30
29 3255
29 30
29 3255
30 31
30 3247
30 3253
30 31
30 3247
30 3253
31 32
31 3246
31 32
31 3246
32 33
32 33
32 2203
32 2203
33 34
33 34
55 56
55 57
55 1068
55 1099
55 56
55 57
55 1068
55 1099
56 76
56 1069
56 76
56 1069
57 58
57 1071
57 1072
57 58
57 1072
57 1071
58 59
58 1089
58 32419
58 59
58 1089
58 32419
59 60
59 61
59 62
59 60
59 61
59 62
62 1089
62 63
62 1089
62 63
63 64
63 339
63 64
63 339
64 65
64 2220
64 65
64 2220
65 66
65 2155
65 2157
65 66
65 2155
65 2157
66 67
66 68
66 2254
66 67
66 68
66 2254
68 69
68 70
68 2251
68 69
68 70
68 2251
70 71
70 1052
70 2251
70 2251
70 71
70 1052
71 72
71 1049
71 72
71 1049
72 73
72 74
72 73
72 74
74 76
74 75
74 76
74 75
76 1075
76 1075
77 94
77 94
78 79
78 79
78 80
78 455
78 80
78 455
79 119
79 119
80 81
80 81
81 82
81 104
81 82
81 104
82 83
82 113
82 83
82 113
83 84
83 84
83 112
83 112
84 85
84 85
86 87
86 88
86 128
86 315
86 87
86 88
86 315
86 128
87 97
87 134
87 97
87 134
88 89
88 128
88 128
88 89
89 90
89 91
89 90
89 91
91 92
91 92
92 93
92 93
93 94
93 94
93 133
93 133
95 96
95 96
96 97
96 97
97 123
97 134
97 134
97 123
98 470
98 35729
98 470
98 35729
104 105
104 107
104 124
104 105
104 107
104 124
105 455
105 106
105 455
105 106
106 107
106 107
106 135
106 151
106 135
106 151
107 124
107 135
107 124
107 135
108 109
108 113
108 123
108 113
108 123
108 109
109 113
109 111
109 113
109 111
110 111
110 112
110 112
110 111
111 112
111 112
112 114
112 114
115 116
115 117
115 120
115 169
115 116
115 117
115 120
115 169
116 119
116 119
116 122
116 122
117 118
117 169
117 454
117 169
117 118
117 454
118 119
118 119
118 453
118 453
119 342
119 342
120 121
120 170
120 171
120 121
120 170
120 171
121 122
121 122
121 171
121 171
122 36184
122 36184
123 124
123 124
125 126
125 127
125 176
125 355
125 383
125 126
125 127
125 355
125 176
125 383
126 127
126 176
126 354
126 127
126 176
126 354
127 353
127 443
127 353
127 443
128 129
128 452
128 129
128 452
129 130
129 154
129 444
129 130
129 154
129 444
130 131
130 132
130 154
130 154
130 131
130 132
132 133
132 133
132 138
132 138
133 139
133 139
134 135
134 316
134 135
134 316
135 316
135 316
138 139
138 155
138 139
138 155
139 387
139 387
140 141
140 142
140 391
140 141
140 142
140 391
141 142
141 388
141 142
141 388
142 389
142 389
143 144
143 146
143 177
143 144
143 146
143 177
144 145
144 178
144 186
144 145
144 178
144 186
145 452
145 146
145 146
145 452
145 41763
145 41763
146 315
146 315
147 148
147 149
147 166
147 167
147 148
147 149
147 166
147 167
148 152
148 168
148 152
148 168
149 150
149 317
149 150
149 317
150 151
150 316
150 151
150 316
151 152
151 454
151 454
151 152
152 169
152 169
153 176
153 354
153 154
153 155
153 154
153 155
153 176
153 354
154 356
154 356
155 176
155 176
156 157
156 158
156 1057
156 157
156 158
156 1057
157 175
157 1093
157 175
157 1093
158 159
158 1057
158 1057
158 159
159 160
159 1056
159 160
159 1056
160 161
160 36965
160 161
160 36965
161 162
161 36964
161 162
161 36964
162 166
162 163
162 166
162 163
163 164
163 165
163 164
163 165
166 36963
166 36963
171 1089
171 172
171 1089
171 172
172 1089
172 173
172 1089
172 173
173 175
173 174
173 175
173 174
175 1093
175 1093
177 178
177 187
177 178
177 187
178 186
178 186
179 180
179 181
179 425
179 42066
179 180
179 181
179 425
179 42066
180 183
180 379
180 434
180 183
180 379
180 434
181 182
181 426
181 35695
181 182
181 35695
181 426
182 183
182 183
182 423
182 35699
182 423
182 35699
183 422
183 380
183 422
183 380
186 187
186 187
187 314
187 314
188 189
188 190
188 369
188 189
188 190
188 369
189 191
189 357
189 358
189 191
189 357
189 358
190 191
190 193
190 351
190 191
190 193
190 351
191 441
191 441
192 193
192 193
192 194
192 201
192 194
192 201
193 195
193 461
193 195
193 461
194 195
194 203
194 375
194 195
194 203
194 375
195 462
195 462
201 202
201 352
201 202
201 352
202 203
202 203
203 373
203 373
204 205
204 206
204 213
204 372
204 205
204 206
204 372
204 213
205 373
205 209
205 373
205 374
205 209
205 374
206 207
206 433
206 207
206 433
207 208
207 432
207 208
207 432
208 209
208 209
208 344
208 432
208 432
208 344
209 344
209 374
209 374
209 344
210 211
210 212
210 235
210 211
210 212
210 235
211 213
211 213
211 350
211 371
211 371
211 350
212 213
212 213
212 227
212 230
212 230
212 227
213 372
213 372
214 215
214 216
214 309
214 215
214 216
214 309
215 216
215 312
215 216
215 312
216 308
216 308
226 227
226 227
226 228
226 251
226 228
226 251
227 234
227 234
228 229
228 255
228 229
228 255
229 230
229 230
229 255
229 255
230 260
230 261
230 260
230 261
231 232
231 233
231 289
231 232
231 233
231 289
232 236
232 245
232 236
232 245
233 234
233 234
233 273
233 276
233 273
233 276
234 251
234 251
235 236
235 41752
235 236
235 41752
236 250
236 250
242 243
242 244
242 36178
242 243
242 244
242 36178
243 250
243 248
243 250
243 248
244 245
244 245
244 36218
244 36218
245 246
245 247
245 246
245 247
247 250
247 248
247 248
247 250
248 250
248 249
248 250
248 249
251 273
251 273
252 253
252 1159
252 253
252 1159
253 36178
253 36178
254 255
254 255
254 256
254 256
256 257
256 257
257 258
257 272
257 258
257 272
258 259
258 35850
258 42587
258 259
258 35850
258 42587
259 260
259 260
259 35851
259 42078
259 35851
259 42078
260 432
260 432
260 42078
260 42078
262 263
262 264
262 549
262 263
262 264
262 549
263 278
263 288
263 550
263 278
263 288
263 550
264 265
264 267
264 265
264 267
265 266
265 266
267 268
267 1918
267 268
267 1918
268 269
268 290
268 297
268 269
268 290
268 297
269 270
269 42585
269 270
269 42585
270 271
270 301
270 271
270 301
271 272
271 272
271 301
271 301
272 42587
272 42587
273 274
273 275
273 274
273 275
276 289
276 277
276 278
276 289
276 278
276 277
278 279
278 279
280 281
280 282
280 35769
280 281
280 282
280 35769
281 285
281 42598
281 285
281 42598
282 283
282 286
282 35773
282 283
282 286
282 35773
283 284
283 286
283 286
283 284
284 285
284 285
284 287
284 35846
284 287
284 35846
285 35845
285 35846
285 35846
285 35845
286 287
286 35772
286 287
286 35772
287 35775
287 35847
287 35775
287 35847
288 289
288 289
288 36211
288 36211
290 291
290 327
290 1920
290 291
290 327
290 1920
291 292
291 327
291 327
291 292
292 293
292 480
292 293
292 480
293 294
293 480
293 35805
293 480
293 294
293 35805
294 295
294 35795
294 35796
294 295
294 35796
294 35795
295 296
295 296
296 297
296 297
296 42583
296 42583
297 42583
297 42583
298 299
298 300
298 42582
298 299
298 300
298 42582
299 300
299 42586
299 300
299 42586
300 35863
300 35863
301 42582
301 42582
302 303
302 304
302 305
302 303
302 304
302 305
303 317
303 1056
303 317
303 1056
303 1092
303 1092
305 306
305 1103
305 1156
305 306
305 1103
305 1156
306 307
306 1158
306 307
306 1158
307 308
307 1159
307 308
307 1159
308 36178
308 36178
309 310
309 311
309 310
309 311
312 314
312 313
312 314
312 313
314 41764
314 41764
317 318
317 318
327 1919
327 1919
331 332
331 333
331 386
331 332
331 333
331 386
332 333
332 35734
332 333
332 35734
333 404
333 404
338 339
338 342
338 339
338 340
338 342
338 36186
338 340
338 36186
339 341
339 36187
339 341
339 36187
340 342
340 341
340 342
340 341
341 2202
341 2202
342 36185
342 36185
343 432
343 344
343 344
343 432
343 42082
343 42082
350 351
350 352
350 351
350 352
351 371
351 371
352 373
352 373
353 354
353 354
353 356
353 358
353 356
353 358
355 381
355 381
356 357
356 359
356 357
356 359
357 360
357 360
358 440
358 440
359 444
359 360
359 361
359 444
359 360
359 361
360 362
360 362
361 362
361 36966
361 362
361 36966
362 363
362 41760
362 363
362 41760
363 364
363 370
363 41759
363 364
363 370
363 41759
364 365
364 366
364 365
364 366
366 370
366 367
366 370
366 367
367 369
367 368
367 369
367 368
368 369
368 369
370 371
370 371
370 41758
370 41758
371 41755
371 41755
372 373
372 373
374 375
374 375
374 42079
374 42079
375 460
375 42079
375 42079
375 460
379 380
379 435
379 380
379 435
380 469
380 469
381 383
381 382
381 383
381 382
382 392
382 393
382 392
382 393
383 384
383 37498
383 384
383 37498
384 385
384 385
384 468
384 468
385 386
385 386
386 387
386 387
386 36967
386 36967
387 388
387 388
388 392
388 392
389 391
389 390
389 391
389 390
392 393
392 393
394 395
394 396
394 7162
394 395
394 396
394 7162
395 399
395 42094
395 399
395 42094
396 397
396 7163
396 397
396 7163
397 398
397 3263
397 398
397 3263
398 399
398 399
398 3261
398 3261
399 457
399 457
400 401
400 403
400 592
400 401
400 403
400 592
401 402
401 41613
401 402
401 41613
402 403
402 403
402 445
402 445
403 450
403 450
404 405
404 405
405 410
405 411
405 410
405 411
410 470
410 411
410 470
410 472
410 411
410 472
411 36193
411 36193
419 420
419 35698
419 420
419 35698
420 35709
420 35709
422 423
422 37415
422 423
422 37415
423 35698
423 35698
424 425
424 426
424 425
424 426
424 427
424 427
425 426
425 42066
425 42066
425 426
426 35746
426 35746
427 35747
427 42052
427 35747
427 42052
434 435
434 460
434 42076
434 460
434 435
434 42076
435 461
435 461
436 437
436 439
436 23898
436 437
436 439
436 23898
437 438
437 33468
437 438
437 33468
438 439
438 439
438 15713
438 20655
438 20655
438 15713
439 20655
439 23896
439 20655
439 23896
440 441
440 441
441 442
441 442
442 443
442 468
442 443
442 468
444 36966
444 41761
444 36966
444 41761
445 446
445 40748
445 446
445 40748
446 447
446 2648
446 447
446 2648
447 448
447 2647
447 448
447 2647
448 449
448 449
449 450
449 450
449 591
449 591
450 451
450 451
452 41762
452 41762
453 454
453 454
454 455
454 455
456 457
456 457
456 458
456 21970
456 458
456 21970
457 42094
457 459
457 20849
457 41945
457 42094
457 459
457 20849
457 41945
458 459
458 20811
458 20812
458 21121
458 459
458 20811
458 20812
458 21121
459 21121
459 21121
460 42079
460 42074
460 42079
460 42074
461 462
461 462
463 464
463 467
463 20571
463 464
463 467
463 20571
464 465
464 5314
464 5315
464 465
464 5314
464 5315
465 466
465 40105
465 41916
465 466
465 41916
465 40105
466 467
466 467
466 41916
466 41916
467 20718
467 25505
467 20718
467 25505
468 37498
468 37498
469 37415
469 37415
470 471
470 35881
470 471
470 35881
471 472
471 472
472 473
472 473
474 475
474 479
474 475
474 479
475 476
475 36979
475 1594983
475 476
475 36979
475 1594983
476 477
476 36977
476 477
476 36977
477 478
477 478
478 479
478 479
478 35803
478 36976
478 35803
478 36976
479 480
479 480
521 522
521 36982
521 36992
521 522
521 36982
521 36992
522 523
522 548
522 523
522 548
523 524
523 525
523 524
523 525
524 526
524 36201
524 526
524 36201
525 550
525 526
525 550
525 526
526 1166
526 1166
536 537
536 541
536 542
536 537
536 541
536 542
537 538
537 36981
537 538
537 36981
538 539
538 36985
538 1603443
538 539
538 36985
538 1603443
539 540
539 1603442
539 540
539 1603442
540 541
540 541
540 1594982
540 1594982
541 36986
541 36986
542 543
542 543
543 36981
543 36981
548 549
548 549
550 36210
550 36210
551 552
551 553
551 559
551 552
551 553
551 559
552 555
552 556
552 555
552 556
553 554
553 36197
553 554
553 36197
554 555
554 555
554 557
554 1189
554 557
554 1189
555 556
555 556
556 557
556 557
557 561
557 561
558 559
558 559
558 560
558 2023
558 560
558 2023
559 560
559 560
560 2025
560 37003
560 2025
560 37003
561 568
561 568
562 563
562 566
562 567
562 563
562 566
562 567
563 564
563 37017
563 564
563 37017
564 565
564 37016
564 565
564 37016
565 566
565 566
565 569
565 569
566 567
566 569
566 567
566 569
567 37020
567 37020
568 573
568 573
569 579
569 579
570 571
570 572
570 571
570 572
571 589
571 589
572 574
572 574
573 577
573 577
574 580
574 580
575 577
575 576
575 577
575 576
576 588
576 588
578 579
578 589
578 579
578 589
580 587
580 587
581 582
581 583
581 22099
581 582
581 583
581 22099
582 586
582 22099
582 22099
582 586
583 584
583 22098
583 584
583 22098
584 585
584 585
585 586
585 586
585 944
585 22105
585 22107
585 22113
585 944
585 22107
585 22105
585 22113
586 944
586 944
587 590
587 590
588 590
588 590
591 592
591 592
591 2652
591 2652
592 2661
592 2661
593 596
593 596
594 596
594 595
594 596
594 36021
594 595
594 36021
595 596
595 596
595 36020
595 36020
604 605
604 606
604 676
604 36183
604 605
604 606
604 676
604 36183
605 608
605 608
606 607
606 41826
606 607
606 41826
607 608
607 608
607 673
607 673
608 675
608 675
615 616
615 617
615 1494580
615 616
615 617
615 1494580
616 624
616 661
616 624
616 661
617 618
617 618
618 619
618 37031
618 619
618 37031
619 620
619 36225
619 620
619 36225
620 621
620 836
620 621
620 836
621 622
621 622
622 623
622 623
623 624
623 624
624 662
624 662
649 650
649 651
649 654
649 650
649 651
649 654
650 651
650 41880
650 651
650 41880
651 41885
651 41885
652 654
652 653
652 654
652 2085
652 653
652 2085
653 654
653 654
653 41879
653 41879
654 41888
654 41888
661 1494580
661 662
661 109371
661 1494580
661 662
661 109371
662 109372
662 139985
662 109372
662 139985
666 667
666 668
666 800
666 853
666 667
666 668
666 800
666 853
667 669
667 828
667 829
667 669
667 828
667 829
668 669
668 743
668 744
668 669
668 743
668 744
669 742
669 763
669 763
669 742
670 671
670 674
670 41890
670 109337
670 671
670 674
670 41890
670 109337
671 672
671 690
671 109344
671 672
671 690
671 109344
672 673
672 675
672 673
672 675
672 692
672 692
673 674
673 674
674 41891
674 41891
675 676
675 676
675 692
675 692
676 695
676 36179
676 695
676 36179
690 691
690 40819
690 109345
690 691
690 40819
690 109345
691 692
691 692
691 37029
691 37029
692 694
692 694
693 695
693 694
693 694
693 695
693 739
693 739
694 37028
694 37028
695 738
695 738
696 697
696 698
696 712
696 697
696 698
696 712
697 698
697 711
697 698
697 711
702 703
702 704
702 705
702 703
702 704
702 705
703 709
703 715
703 109347
703 709
703 715
703 109347
705 706
705 713
705 741
705 706
705 713
705 741
706 711
706 707
706 711
706 707
707 712
707 708
707 712
707 708
708 712
708 709
708 709
708 712
709 40819
709 710
709 40819
709 710
711 40820
711 40820
713 763
713 742
713 714
713 742
713 763
713 714
714 717
714 844
714 717
714 844
715 716
715 716
716 717
716 717
717 843
717 843
718 719
718 721
718 41823
718 719
718 721
718 41823
719 720
719 740
719 720
719 740
720 739
720 721
720 721
720 739
721 41823
721 41823
727 728
727 729
727 793
727 794
727 795
727 728
727 729
727 794
727 793
727 795
728 746
728 795
728 795
728 746
729 730
729 731
729 929
729 730
729 731
729 929
731 732
731 953
731 732
731 953
732 929
732 733
732 734
732 929
732 733
732 734
734 735
734 963
734 735
734 963
735 736
735 737
735 736
735 737
737 738
737 738
737 904
737 909
737 904
737 909
738 36179
738 739
738 739
738 36179
739 740
739 740
740 741
740 741
742 743
742 743
743 744
743 744
744 800
744 745
744 800
744 745
745 800
745 746
745 746
745 765
745 766
745 800
745 765
745 766
746 796
746 801
746 796
746 801
763 829
763 829
763 847
763 847
764 765
764 766
764 796
764 765
764 766
764 796
765 766
765 799
765 766
765 799
766 802
766 802
767 768
767 769
767 833
767 37030
767 768
767 769
767 833
767 37030
768 836
768 771
768 784
768 836
768 109368
768 771
768 784
768 109368
769 770
769 782
769 770
769 782
770 771
770 784
770 771
770 781
770 784
770 781
771 772
771 784
771 784
771 772
773 774
773 775
773 876
773 774
773 775
773 876
774 783
774 1494590
774 783
774 1494590
775 776
775 837
775 776
775 837
776 777
776 839
776 777
776 839
777 778
777 779
777 778
777 779
779 781
779 780
779 781
779 780
781 785
781 826
781 785
781 826
782 783
782 37032
782 783
782 37032
783 41659
783 41659
784 791
784 109367
784 791
784 109367
785 786
785 832
785 786
785 832
786 787
786 871
786 787
786 871
787 788
787 789
787 788
787 789
789 790
789 849
789 790
789 849
790 791
790 791
790 820
790 820
791 819
791 819
792 794
792 793
792 793
792 794
792 862
792 955
792 862
792 955
793 795
793 797
793 795
793 797
794 929
794 954
794 929
794 954
795 796
795 796
797 862
797 798
797 857
797 862
797 798
797 857
798 800
798 800
798 859
798 859
801 802
801 802
803 804
803 805
803 804
803 805
804 818
804 900
804 903
804 818
804 900
804 903
805 806
805 913
805 985
805 806
805 913
805 985
806 807
806 810
806 807
806 810
807 808
807 808
808 809
808 809
810 913
810 811
810 913
810 811
811 812
811 912
811 812
811 912
812 813
812 2195
812 813
812 2195
813 814
813 2195
813 2195
813 814
814 815
814 36188
814 815
814 36188
815 816
815 36188
815 36188
815 816
816 817
816 890
816 817
816 890
817 818
817 818
817 889
817 889
818 899
818 901
818 899
818 901
819 109367
819 825
819 109367
819 825
820 821
820 848
820 821
820 848
821 822
821 869
821 822
821 869
822 823
822 868
822 823
822 868
823 824
823 868
823 868
823 824
824 825
824 825
824 867
824 867
825 109364
825 109364
826 828
826 827
826 828
826 827
828 838
828 842
828 838
828 842
829 830
829 830
830 831
830 846
830 831
830 846
831 832
831 832
831 845
831 845
832 871
832 871
833 834
833 835
833 834
833 835
834 36225
834 836
834 836
834 36225
836 109373
836 109373
837 838
837 872
837 875
837 838
837 872
837 875
838 841
838 841
840 842
840 841
840 841
840 842
840 850
840 850
841 872
841 861
841 872
841 861
842 854
842 854
843 844
843 844
843 109346
843 109346
844 870
844 870
845 871
845 849
845 849
845 871
846 847
846 847
847 848
847 848
848 849
848 849
848 869
848 869
850 851
850 858
850 851
850 858
851 852
851 43513
851 852
851 43513
852 853
852 853
853 860
853 860
854 855
854 856
854 855
854 856
857 858
857 859
857 859
857 858
858 861
858 860
858 861
858 860
860 43513
860 43513
861 862
861 862
861 877
861 877
862 960
862 960
867 870
867 870
868 869
868 869
872 873
872 873
873 877
873 874
873 877
873 874
874 876
874 876
874 37038
874 1494595
874 37038
874 1494595
875 876
875 876
877 36226
877 37036
877 36226
877 37036
883 36188
883 884
883 885
883 36188
883 36194
883 884
883 885
883 36194
884 888
884 36189
884 888
884 36189
885 886
885 2196
885 36195
885 886
885 36195
885 2196
886 887
886 2196
886 2196
886 887
887 888
887 888
888 2198
888 2198
889 890
889 890
889 891
889 891
890 891
890 891
891 898
891 898
892 909
892 893
892 894
892 909
892 998
892 893
892 894
892 998
893 897
893 961
893 998
893 998
893 897
893 961
894 895
894 895
895 896
895 896
896 897
896 897
897 963
897 963
898 899
898 899
898 36192
898 36192
899 36191
899 36191
900 901
900 902
900 901
900 902
901 904
901 904
901 905
901 905
902 903
902 903
902 907
902 959
902 907
902 959
903 987
903 1005
903 1005
903 987
904 906
904 908
904 906
904 908
905 906
905 36181
905 906
905 36181
906 36180
906 36180
907 908
907 956
907 958
907 908
907 956
907 958
908 909
908 909
909 956
909 956
910 911
910 35561
910 35570
910 911
910 35561
910 35570
911 35568
911 35579
911 35568
911 35579
912 913
912 913
912 917
912 918
912 917
912 918
913 914
913 914
914 915
914 984
914 915
914 984
915 916
915 926
915 927
915 916
915 927
915 926
916 917
916 917
916 926
916 926
917 925
917 2194
917 925
917 2194
919 920
919 921
919 1036
919 1037
919 920
919 921
919 1037
919 1036
920 928
920 983
920 1036
920 1036
920 928
920 983
921 922
921 1037
921 1037
921 922
922 923
922 1002
922 923
922 1002
923 924
923 1002
923 1002
923 924
924 925
924 925
924 41712
924 41913
924 41712
924 41913
925 2194
925 41712
925 2194
925 41712
926 927
926 927
927 928
927 928
928 983
928 983
929 954
929 954
930 931
930 932
930 934
930 37052
930 931
930 932
930 934
930 37052
931 933
931 1026
931 933
931 1026
932 933
932 940
932 41649
932 933
932 940
932 41649
933 1027
933 1027
934 935
934 1014
934 935
934 1014
935 936
935 1014
935 1014
935 936
936 937
936 949
936 1039
936 937
936 949
936 1039
937 938
937 950
937 938
937 950
938 939
938 2250
938 939
938 2250
939 940
939 940
939 41976
939 41976
940 41975
940 41975
944 31944
944 31944
945 1026
945 946
945 947
945 1026
945 946
945 947
946 948
946 1040
946 37049
946 37053
946 37054
946 948
946 1040
946 37049
946 37053
946 37054
947 948
947 948
948 36253
948 41650
948 36253
948 41650
949 950
949 1039
949 1086
949 1039
949 950
949 1086
950 2243
950 2243
954 955
954 955
954 962
954 962
955 960
955 965
955 960
955 965
956 997
956 1008
956 997
956 1008
957 959
957 958
957 958
957 959
957 979
957 979
958 959
958 959
958 1006
958 1006
959 978
959 978
960 971
960 36227
960 971
960 36227
961 962
961 994
961 999
961 962
961 994
961 999
962 967
962 967
963 964
963 964
965 966
965 970
965 1013
965 966
965 970
965 1013
966 967
966 967
966 995
966 995
967 994
967 994
968 970
968 969
968 970
968 973
968 969
968 973
969 971
969 971
969 972
969 972
971 36226
971 36226
972 37036
972 973
972 973
972 37036
973 37041
973 37041
974 975
974 976
974 41715
974 1494605
974 975
974 976
974 41715
974 1494605
975 979
975 979
975 1012
975 1494608
975 1012
975 1494608
976 977
976 36254
976 977
976 36254
977 1037
977 978
977 978
977 1037
978 1036
978 983
978 983
978 1036
979 1011
979 1011
980 981
980 982
980 1004
980 981
980 982
980 1004
981 1005
981 988
981 1005
981 988
982 983
982 983
982 1003
982 1003
985 986
985 987
985 987
985 986
987 988
987 988
988 989
988 990
988 993
988 989
988 990
988 993
990 991
990 992
990 991
990 992
994 996
994 996
995 1013
995 996
995 1013
995 1034
995 996
995 1034
996 999
996 999
996 1035
996 1035
997 998
997 998
997 1001
997 1001
998 1001
998 1001
999 1000
999 1000
1000 1001
1000 1001
1000 40969
1000 40969
1002 41914
1002 41914
1006 1007
1006 1011
1006 1012
1006 1012
1006 1011
1006 1007
1007 1010
1007 37043
1007 1010
1007 37043
1008 1009
1008 1009
1009 1010
1009 1010
1009 40968
1009 40968
1010 37045
1010 37045
1012 37047
1012 1494604
1012 37047
1012 1494604
1013 36228
1013 37039
1013 36228
1013 37039
1014 1038
1014 1038
1026 1027
1026 1027
1027 1043
1027 1043
1032 36253
1032 1033
1032 36253
1032 1033
1034 1035
1034 36230
1034 1035
1034 36230
1035 40968
1035 40968
1037 36253
1037 36253
1038 1039
1038 1039
1038 1131
1038 41993
1038 1131
1038 41993
1040 1041
1040 37048
1040 1041
1040 37048
1041 1042
1041 1042
1042 36252
1042 36252
1044 1045
1044 1046
1044 1047
1044 1051
1044 1045
1044 1046
1044 1051
1044 1047
1045 1046
1045 2190
1045 1046
1045 2190
1046 2181
1046 2181
1047 1048
1047 2249
1047 1048
1047 2249
1048 1049
1048 1049
1048 1077
1048 1077
1049 1050
1049 1050
1050 1052
1050 1051
1050 1051
1050 1052
1051 2258
1051 2258
1052 2256
1052 2258
1052 2258
1052 2256
1053 1054
1053 1055
1053 1107
1053 1054
1053 1055
1053 1107
1054 1059
1054 1122
1054 1059
1054 1122
1055 1056
1055 1056
1055 1091
1055 1091
1057 1058
1057 1058
1058 1059
1058 1059
1058 1123
1058 1123
1059 1122
1059 1122
1068 1069
1068 1096
1068 1116
1068 36235
1068 1069
1068 1096
1068 1116
1068 36235
1069 1116
1069 1116
1070 1072
1070 1071
1070 1093
1070 1071
1070 1072
1070 1093
1070 1121
1070 1121
1071 1098
1071 1110
1071 1098
1071 1110
1072 32419
1072 32419
1073 1075
1073 1074
1073 1075
1073 1117
1073 1074
1073 1117
1074 1086
1074 1078
1074 1086
1074 1078
1075 1076
1075 1076
1077 1078
1077 1087
1077 1078
1077 1087
1078 1087
1078 1087
1086 1088
1086 38043
1086 1088
1086 38043
1087 1088
1087 41991
1087 1088
1087 41991
1088 41992
1088 41992
1090 1092
1090 1091
1090 1091
1090 1092
1090 1104
1090 1104
1091 1106
1091 1106
1092 1100
1092 1143
1092 1100
1092 1143
1096 1097
1096 1109
1096 1097
1096 1109
1097 1098
1097 1098
1097 1111
1097 1111
1098 1110
1098 1110
1100 1101
1100 1124
1100 1101
1100 1124
1101 1103
1101 1102
1101 1103
1101 1102
1103 1124
1103 1124
1104 1105
1104 1143
1104 1143
1104 1105
1105 1107
1105 1107
1105 1163
1105 1163
1107 1152
1107 1152
1108 1110
1108 1109
1108 1109
1108 1110
1108 1125
1108 1125
1109 1125
1109 1125
1112 1113
1112 1115
1112 25442
1112 1113
1112 1115
1112 25442
1113 1114
1113 37064
1113 37079
1113 1114
1113 37064
1113 37079
1114 1115
1114 1115
1114 2787
1114 2803
1114 2803
1114 2787
1115 3070
1115 3070
1116 1117
1116 37075
1116 1117
1116 37075
1117 38042
1117 38042
1121 1122
1121 1122
1121 1151
1121 36172
1121 1151
1121 36172
1124 1165
1124 1165
1125 36167
1125 36170
1125 36167
1125 36170
1126 1127
1126 1128
1126 37060
1126 1127
1126 1128
1126 37060
1127 1131
1127 1131
1127 37061
1127 37061
1128 1129
1128 37059
1128 1129
1128 37059
1129 1130
1129 37059
1129 37059
1129 1130
1130 1131
1130 41993
1130 1131
1130 41993
1131 41993
1131 41993
1138 1139
1138 1140
1138 1147
1138 1139
1138 1140
1138 1147
1139 1142
1139 1145
1139 1142
1139 1145
1140 38043
1140 1141
1140 38043
1140 1141
1141 41993
1141 1142
1141 1142
1141 41993
1142 1146
1142 1146
1143 1162
1143 1173
1143 1162
1143 1173
1144 1145
1144 1146
1144 1145
1144 1146
1144 38045
1144 38045
1145 1147
1145 1147
1146 37059
1146 37059
1147 38044
1147 38044
1150 1152
1150 1151
1150 1151
1150 1152
1150 36242
1150 36242
1151 36174
1151 36175
1151 36174
1151 36175
1152 1163
1152 1163
1156 1157
1156 1165
1156 1165
1156 1157
1157 1158
1157 1158
1157 1167
1157 1167
1158 1159
1158 1159
1160 1162
1160 1161
1160 1162
1160 1175
1160 1161
1160 1175
1161 1164
1161 1174
1161 1164
1161 1174
1162 1172
1162 36207
1162 1172
1162 36207
1163 1164
1163 1164
1164 36241
1164 36241
1165 1166
1165 1166
1166 1167
1166 1167
1172 1173
1172 1173
1172 36206
1172 36206
1173 36205
1173 36205
1174 1175
1174 1175
1174 1193
1174 1193
1175 1194
1175 1194
1185 1186
1185 36200
1185 1186
1185 36200
1186 37008
1186 37008
1187 1189
1187 1188
1187 1189
1187 37021
1187 1188
1187 37021
1188 1192
1188 37022
1188 1192
1188 37022
1189 1190
1189 1190
1190 1191
1190 37077
1190 1191
1190 37077
1191 1192
1191 1192
1191 36240
1191 36240
1192 36239
1192 36239
1193 1194
1193 36240
1193 1194
1193 36240
1194 37077
1194 37077
1195 36207
1195 1196
1195 36207
1195 1196
1196 36208
1196 36208
1197 37022
1197 37022
1226 1227
1226 1230
1226 1339
1226 1227
1226 1230
1226 1339
1227 1357
1227 1357
1231 1232
1231 1233
1231 1237
1231 1232
1231 1233
1231 1237
1232 1233
1232 1236
1232 1233
1232 1236
1233 1486
1233 1486
1234 1236
1234 1235
1234 1236
1234 1352
1234 1235
1234 1352
1235 1237
1235 1237
1235 1426
1235 1426
1237 1446
1237 1446
1238 1239
1238 1240
1238 1414
1238 1419
1238 1239
1238 1240
1238 1419
1238 1414
1239 1240
1239 1421
1239 1240
1239 1421
1240 1414
1240 1415
1240 1414
1240 1415
1243 1276
1243 1372
1243 1276
1243 1372
1244 1245
1244 1246
1244 1427
1244 1245
1244 1246
1244 1427
1245 1261
1245 35913
1245 1261
1245 35913
1246 1247
1246 1251
1246 1247
1246 1251
1247 1248
1247 1249
1247 1248
1247 1249
1249 1251
1249 1250
1249 1251
1249 1250
1251 1252
1251 1252
1252 1352
1252 1253
1252 1352
1252 1428
1252 37094
1252 37106
1252 1253
1252 1428
1252 37094
1252 37106
1253 1254
1253 1351
1253 1396
1253 1254
1253 1396
1253 1351
1254 1255
1254 1354
1254 1396
1254 1396
1254 1255
1254 1354
1255 1256
1255 35918
1255 1256
1255 35918
1256 1257
1256 1257
1257 1258
1257 1258
1258 1259
1258 35917
1258 1259
1258 35917
1259 1260
1259 35916
1259 1260
1259 35916
1260 1261
1260 1261
1260 39894
1260 39894
1261 35913
1261 35913
1262 1263
1262 1264
1262 1750
1262 1263
1262 1264
1262 1750
1263 1265
1263 1799
1263 1265
1263 1799
1264 1265
1264 1751
1264 1265
1264 1751
1265 24772
1265 24772
1276 1277
1276 1371
1276 1277
1276 1371
1277 1389
1277 1389
1339 1343
1339 1362
1339 1363
1339 1343
1339 1362
1339 1363
1342 1343
1342 1343
1343 1361
1343 1361
1345 1346
1345 1348
1345 1353
1345 1497
1345 1346
1345 1348
1345 1353
1345 1497
1346 1347
1346 1349
1346 1393
1346 1347
1346 1349
1346 1393
1347 1348
1347 1348
1347 1350
1347 32687
1347 1350
1347 32687
1348 1354
1348 1354
1348 35914
1348 35914
1349 1363
1349 1350
1349 1363
1349 1364
1349 1350
1349 1364
1350 1361
1350 1361
1350 1369
1350 1369
1351 1352
1351 1396
1351 1352
1351 1354
1351 1396
1351 1354
1352 1353
1352 1465
1352 1353
1352 1465
1353 1467
1353 1497
1353 1497
1353 1467
1354 1396
1354 1396
1357 1358
1357 1370
1357 1358
1357 1370
1358 1370
1358 1372
1358 1372
1358 1370
1361 1362
1361 1362
1362 1369
1362 1369
1363 1368
1363 1369
1363 1369
1363 1368
1364 1393
1364 1365
1364 1393
1364 1365
1365 1366
1365 1391
1365 1366
1365 1391
1366 1367
1366 1391
1366 1391
1366 1367
1367 1368
1367 1391
1367 1368
1367 1373
1367 1391
1367 1373
1368 1372
1368 1370
1368 1370
1368 1372
1368 1374
1368 1374
1370 1374
1370 1374
1371 1373
1371 1384
1371 1390
1371 1373
1371 1390
1371 1384
1372 1374
1372 1374
1373 1392
1373 1392
1375 1376
1375 1377
1375 1776
1375 1376
1375 1377
1375 1776
1376 1377
1376 1777
1376 1377
1376 1777
1377 1869
1377 1883
1377 1869
1377 1883
1378 1379
1378 1380
1378 1381
1378 1386
1378 1379
1378 1380
1378 1381
1378 1386
1379 1385
1379 1473
1379 1589
1379 1385
1379 1473
1379 1589
1380 1381
1380 1381
1381 1382
1381 1382
1382 1390
1382 1383
1382 1390
1382 1383
1383 1390
1383 1384
1383 1384
1383 1390
1384 1385
1384 1394
1384 1385
1384 1394
1385 1393
1385 1393
1385 1474
1385 1474
1386 1387
1386 1589
1386 1603389
1386 1589
1386 1387
1386 1603389
1387 1388
1387 1603388
1387 1603550
1387 1388
1387 1603388
1387 1603550
1388 1389
1388 1820
1388 1389
1388 1820
1391 1392
1391 1392
1392 1395
1392 1395
1393 1497
1393 1497
1397 1398
1397 1403
1397 1408
1397 1398
1397 1403
1397 1408
1398 1399
1398 1731
1398 1399
1398 1731
1399 1400
1399 30901
1399 43434
1399 1400
1399 30901
1399 43434
1400 1401
1400 1401
1401 30901
1401 1402
1401 30901
1401 1402
1402 1403
1402 1403
1402 30900
1402 30900
1403 1409
1403 1409
1404 1415
1404 1405
1404 1406
1404 1415
1404 1418
1404 1405
1404 1406
1404 1418
1405 1406
1405 1423
1405 1406
1405 1423
1406 1418
1406 1451
1406 1418
1406 1451
1407 1408
1407 1408
1407 1413
1407 1719
1407 9359
1407 1413
1407 9359
1407 1719
1408 1728
1408 1728
1409 1410
1409 30910
1409 1410
1409 30910
1410 1411
1410 1488
1410 1489
1410 1691
1410 1710
1410 1411
1410 1489
1410 1488
1410 1691
1410 1710
1411 1412
1411 36245
1411 1412
1411 36245
1412 1413
1412 1413
1412 1721
1412 1721
1413 1720
1413 1720
1414 1417
1414 1417
1415 1416
1415 1422
1415 1416
1415 1422
1416 1418
1416 1451
1416 1417
1416 1417
1416 1418
1416 1451
1416 35927
1416 35927
1417 1420
1417 1420
1419 1420
1419 1488
1419 1685
1419 1488
1419 1420
1419 1685
1420 35928
1420 35928
1421 1422
1421 1487
1421 1488
1421 1488
1421 1422
1421 1487
1422 1423
1422 1423
1422 1444
1422 1444
1423 1443
1423 1444
1423 1444
1423 1443
1424 1426
1424 1425
1424 1426
1424 1453
1424 1425
1424 1453
1425 1426
1425 1426
1425 1445
1425 1445
1427 1428
1427 1451
1427 1428
1427 1451
1428 1452
1428 1452
1429 1430
1429 1431
1429 1621
1429 1430
1429 1431
1429 1621
1430 1444
1430 1444
1430 1493
1430 41063
1430 1493
1430 41063
1431 1445
1431 1432
1431 1445
1431 1432
1432 1433
1432 1450
1432 1433
1432 1450
1433 1434
1433 1434
1434 1435
1434 1494
1434 1435
1434 1494
1435 1436
1435 1437
1435 1436
1435 1437
1437 1438
1437 1439
1437 1449
1437 1438
1437 1439
1437 1449
1439 1440
1439 1448
1439 1440
1439 1448
1440 1441
1440 1448
1440 1448
1440 1441
1441 1442
1441 37095
1441 1442
1441 37095
1442 37106
1442 1443
1442 1452
1442 1443
1442 1452
1442 37106
1443 1451
1443 1444
1443 1444
1443 1451
1444 1487
1444 1487
1445 1602
1445 25093
1445 1602
1445 25093
1446 1486
1446 1447
1446 1486
1446 1447
1447 1486
1447 1448
1447 1448
1447 1486
1449 1450
1449 1450
1449 1496
1449 1496
1450 1494
1450 1494
1452 37106
1452 37106
1453 1454
1453 1602
1453 1602
1453 1454
1454 1455
1454 1455
1455 1456
1455 1456
1456 1457
1456 1458
1456 1457
1456 1458
1458 1602
1458 1459
1458 1602
1458 1604
1458 1459
1458 1604
1459 1460
1459 1466
1459 1460
1459 1466
1460 1461
1460 1504
1460 1508
1460 1461
1460 1504
1460 1508
1461 1462
1461 1462
1462 1463
1462 1509
1462 1463
1462 1509
1463 1464
1463 1464
1464 1465
1464 1508
1464 1465
1464 1508
1465 1466
1465 1466
1466 1467
1466 1467
1466 1502
1466 1502
1467 1500
1467 1500
1468 1469
1468 1482
1468 1838
1468 1469
1468 1482
1468 1838
1469 1470
1469 10099
1469 1470
1469 10099
1470 1471
1470 1600
1470 37172
1470 1471
1470 1600
1470 37172
1471 1473
1471 1472
1471 1473
1471 1472
1473 1474
1473 1590
1473 1474
1473 1590
1474 1497
1474 1475
1474 1497
1474 1475
1475 1476
1475 1498
1475 1641
1475 1476
1475 1498
1475 1641
1476 1477
1476 1477
1477 1478
1477 1642
1477 1478
1477 1642
1478 1479
1478 1664
1478 1479
1478 1664
1479 1480
1479 1813
1479 1480
1479 1813
1480 1482
1480 1481
1480 1482
1480 1481
1482 1483
1482 1824
1482 1483
1482 1824
1484 1485
1484 27677
1484 1485
1484 27677
1485 27676
1485 27676
1487 1488
1487 1488
1489 1490
1489 1730
1489 1490
1489 1730
1490 1491
1490 1492
1490 1491
1490 1492
1492 1493
1492 1730
1492 1493
1492 1730
1493 30903
1493 30903
1494 1495
1494 1495
1495 1496
1495 1496
1498 1499
1498 1499
1499 1641
1499 1503
1499 1608
1499 1641
1499 1503
1499 1608
1500 1502
1500 1501
1500 1502
1500 1501
1502 1503
1502 1595
1502 1503
1502 1595
1503 1594
1503 1594
1504 1505
1504 1508
1504 1508
1504 1505
1505 1506
1505 1507
1505 1506
1505 1507
1508 1512
1508 1512
1509 1510
1509 1511
1509 1510
1509 1511
1514 1515
1514 1516
1514 1517
1514 1515
1514 1516
1514 1517
1515 1587
1515 26456
1515 1587
1515 26456
1517 1518
1517 1518
1518 1519
1518 1520
1518 26455
1518 1519
1518 1520
1518 26455
1519 1520
1519 34031
1519 1520
1519 34031
1520 1521
1520 1521
1521 1522
1521 1527
1521 1522
1521 1527
1527 1528
1527 26454
1527 1528
1527 26454
1528 1529
1528 1534
1528 1529
1528 1534
1529 1530
1529 1533
1529 1530
1529 1533
1530 1531
1530 1531
1531 1533
1531 1533
1534 1535
1534 26453
1534 1535
1534 26453
1535 1536
1535 26452
1535 34052
1535 1536
1535 26452
1535 34052
1536 1537
1536 13313
1536 1537
1536 13313
1537 1538
1537 13313
1537 13313
1537 1538
1538 34052
1538 13313
1538 1539
1538 13313
1538 34052
1538 34530
1538 34545
1538 1539
1538 34530
1538 34545
1539 1540
1539 32300
1539 1540
1539 32300
1540 1541
1540 34036
1540 1541
1540 34036
1541 1542
1541 34214
1541 1542
1541 34214
1542 1543
1542 34210
1542 1543
1542 34210
1543 1544
1543 34209
1543 1544
1543 34209
1544 1545
1544 36898
1544 1545
1544 36898
1545 1546
1545 34102
1545 1546
1545 34102
1546 1547
1546 34101
1546 34212
1546 34213
1546 1547
1546 34101
1546 34212
1546 34213
1547 1548
1547 1555
1547 1548
1547 1555
1548 1549
1548 1552
1548 1549
1548 1552
1549 1550
1549 1551
1549 1550
1549 1551
1552 1553
1552 1554
1552 1553
1552 1554
1555 34212
1555 1556
1555 34212
1555 1556
1556 1557
1556 34221
1556 34222
1556 1557
1556 34222
1556 34221
1557 1558
1557 34227
1557 1558
1557 34227
1558 1559
1558 1560
1558 1561
1558 34253
1558 1559
1558 1560
1558 1561
1558 34253
1561 1562
1561 34254
1561 1562
1561 34254
1562 1563
1562 1563
1563 1564
1563 1564
1564 1565
1564 34223
1564 1565
1564 34223
1565 1566
1565 34229
1565 1566
1565 34229
1566 1567
1566 1574
1566 34199
1566 1567
1566 1574
1566 34199
1567 1568
1567 1569
1567 1568
1567 1569
1569 1570
1569 1571
1569 1570
1569 1571
1571 1572
1571 1573
1571 1572
1571 1573
1574 1575
1574 26442
1574 27573
1574 1575
1574 26442
1574 27573
1575 1576
1575 26429
1575 1576
1575 26429
1576 1577
1576 1578
1576 1577
1576 1578
1578 1579
1578 1584
1578 1579
1578 1584
1579 1580
1579 1581
1579 1580
1579 1581
1581 1582
1581 1583
1581 1582
1581 1583
1584 26429
1584 1585
1584 26429
1584 1585
1585 1587
1585 1586
1585 1587
1585 1586
1587 26457
1587 26457
1588 1589
1588 1590
1588 1589
1588 1590
1588 1599
1588 1603635
1588 1599
1588 1603635
1589 1602880
1589 1602880
1590 1600
1590 1600
1591 1592
1591 1593
1591 1592
1591 1593
1592 1596
1592 1614
1592 1596
1592 1614
1593 1594
1593 1594
1593 1614
1593 1614
1594 1609
1594 1609
1595 1596
1595 25416
1595 1596
1595 25416
1596 1624
1596 1624
1597 1598
1597 1601
1597 41322
1597 1603636
1597 1598
1597 1601
1597 41322
1597 1603636
1598 1599
1598 1599
1600 1601
1600 1601
1601 37171
1601 37171
1602 1603
1602 1603
1603 1604
1603 1604
1605 1606
1605 1607
1605 36244
1605 1606
1605 1607
1605 36244
1606 1610
1606 1647
1606 1655
1606 1610
1606 1647
1606 1655
1607 1608
1607 1608
1607 1636
1607 1636
1608 1638
1608 1638
1609 1610
1609 1615
1609 1610
1609 1615
1610 1650
1610 1650
1614 1615
1614 1615
1615 1623
1615 41064
1615 1623
1615 41064
1616 1617
1616 1618
1616 1617
1616 1618
1617 1622
1617 1629
1617 42096
1617 1622
1617 1629
1617 42096
1618 1619
1618 1619
1619 1620
1619 1628
1619 1620
1619 1628
1620 1621
1620 1621
1621 1622
1621 1622
1623 1624
1623 1624
1623 42097
1623 42097
1624 25358
1624 25358
1625 1626
1625 1627
1625 1626
1625 1627
1626 1629
1626 1629
1626 1639
1626 1639
1627 1628
1627 1628
1628 1640
1628 1640
1629 42095
1629 42095
1630 1631
1630 1632
1630 1760
1630 1631
1630 1632
1630 1760
1631 1635
1631 1733
1631 1635
1631 1733
1632 1633
1632 1648
1632 1633
1632 1648
1633 1634
1633 37117
1633 1634
1633 37117
1634 1635
1634 1635
1635 1734
1635 1734
1636 1637
1636 1645
1636 1661
1636 1637
1636 1645
1636 1661
1637 1641
1637 1638
1637 1638
1637 1641
1639 1640
1639 41062
1639 1640
1639 41062
1641 1642
1641 1642
1642 1644
1642 1644
1643 1644
1643 1644
1643 1646
1643 1675
1643 1646
1643 1675
1644 1673
1644 1673
1645 1646
1645 1660
1645 1674
1645 1646
1645 1660
1645 1674
1647 1648
1647 1649
1647 1648
1647 1649
1648 1652
1648 1653
1648 1652
1648 1653
1650 1651
1650 1652
1650 1652
1650 1651
1653 1760
1653 1654
1653 1657
1653 1760
1653 1654
1653 1657
1654 1655
1654 1661
1654 1655
1654 1661
1656 1657
1656 1657
1656 1658
1656 37107
1656 39937
1656 1658
1656 37107
1656 39937
1657 1681
1657 1681
1658 1659
1658 1659
1659 1660
1659 1660
1659 37110
1659 37110
1660 37109
1660 37109
1661 36244
1661 36244
1662 1664
1662 1663
1662 1664
1662 1825
1662 1663
1662 1825
1663 1667
1663 1819
1663 1667
1663 1819
1664 1665
1664 1814
1664 1665
1664 1814
1665 1666
1665 1666
1666 1667
1666 1667
1666 1762
1666 1762
1667 1761
1667 1761
1673 1674
1673 37115
1673 1674
1673 37115
1674 37108
1674 39936
1674 37108
1674 39936
1676 1677
1676 1678
1676 1677
1676 1678
1677 1684
1677 1782
1677 1684
1677 1782
1678 1679
1678 1783
1678 1679
1678 1783
1679 1782
1679 1680
1679 1782
1679 1680
1680 1681
1680 1681
1680 37138
1680 37138
1681 1682
1681 1682
1682 1683
1682 1759
1682 1683
1682 1759
1683 1684
1683 1684
1683 1759
1683 1759
1684 36246
1684 36249
1684 36246
1684 36249
1685 1686
1685 34600
1685 1686
1685 34600
1686 1687
1686 1690
1686 1687
1686 1690
1687 1688
1687 1689
1687 1688
1687 1689
1690 1691
1690 1691
1690 35933
1690 35933
1691 1711
1691 1711
1692 1693
1692 1707
1692 1797
1692 1693
1692 1707
1692 1797
1693 1694
1693 29231
1693 1694
1693 29231
1694 1695
1694 1696
1694 29307
1694 1695
1694 1696
1694 29307
1696 1697
1696 38672
1696 1697
1696 38672
1697 1698
1697 1700
1697 36694
1697 1698
1697 1700
1697 36694
1698 1699
1698 1700
1698 1700
1698 1699
1700 1701
1700 36694
1700 36694
1700 1701
1701 1702
1701 1703
1701 1702
1701 1703
1703 1704
1703 1705
1703 1704
1703 1705
1705 1706
1705 38673
1705 1706
1705 38673
1706 1707
1706 1707
1706 1798
1706 1798
1707 1708
1707 1708
1709 1710
1709 1710
1709 1717
1709 1739
1709 1717
1709 1739
1710 3270
1710 3270
1711 1712
1711 1713
1711 1712
1711 1713
1713 1714
1713 35932
1713 1714
1713 35932
1714 1715
1714 1716
1714 1715
1714 1716
1716 1717
1716 1717
1716 35931
1716 35931
1717 35935
1717 35935
1718 1719
1718 1719
1718 1723
1718 1746
1718 30864
1718 1723
1718 30864
1718 1746
1719 1720
1719 1720
1721 1722
1721 1722
1722 36245
1722 1723
1722 1723
1722 36245
1723 3270
1723 3270
1724 1731
1724 1725
1724 1726
1724 1731
1724 1725
1724 1726
1725 1729
1725 9957
1725 1729
1725 9957
1726 1728
1726 1727
1726 1728
1726 1727
1728 1729
1728 1729
1729 9359
1729 9358
1729 9359
1729 9358
1730 30905
1730 30905
1731 43435
1731 43435
1732 1733
1732 1734
1732 1733
1732 1734
1734 37119
1734 37119
1735 1739
1735 1736
1735 1739
1735 1749
1735 1736
1735 1749
1736 1737
1736 1748
1736 1737
1736 1748
1737 1738
1737 1738
1738 1739
1738 1739
1738 3269
1738 3269
1740 1749
1740 1741
1740 1749
1740 34690
1740 1741
1740 34690
1741 1742
1741 42810
1741 1742
1741 42810
1742 1743
1742 1744
1742 1743
1742 1744
1744 1746
1744 1745
1744 1746
1744 1745
1746 1747
1746 1747
1747 1748
1747 1748
1748 3269
1748 3269
1749 34691
1749 34691
1750 1751
1750 1798
1750 1751
1750 1798
1751 38676
1751 38676
1752 1753
1752 1754
1752 1891
1752 10292
1752 1753
1752 1754
1752 1891
1752 10292
1753 1755
1753 1890
1753 1891
1753 1891
1753 1755
1753 1890
1754 1755
1754 37139
1754 1755
1754 37139
1755 1890
1755 1890
1756 1757
1756 1758
1756 35788
1756 1603391
1756 1757
1756 1758
1756 35788
1756 1603391
1757 1758
1757 42531
1757 1758
1757 42531
1758 35790
1758 35790
1759 1760
1759 1760
1760 36247
1760 36247
1761 1767
1761 1771
1761 1767
1761 1771
1762 1763
1762 37114
1762 1763
1762 37114
1763 1764
1763 37112
1763 1764
1763 37112
1764 1765
1764 37111
1764 1765
1764 37111
1765 1766
1765 39932
1765 1766
1765 39932
1766 37138
1766 1767
1766 1767
1766 37138
1767 1772
1767 1772
1768 1769
1768 1770
1768 1786
1768 1769
1768 1770
1768 1786
1769 1772
1769 1772
1769 1785
1769 37137
1769 1785
1769 37137
1770 1771
1770 1771
1770 1859
1770 1859
1771 1815
1771 1815
1773 1774
1773 1775
1773 1886
1773 1774
1773 1775
1773 1886
1774 1781
1774 1887
1774 37128
1774 1781
1774 1887
1774 37128
1775 1776
1775 1776
1775 1889
1775 1889
1776 1880
1776 1880
1777 1778
1777 1830
1777 1831
1777 1778
1777 1830
1777 1831
1778 1779
1778 1779
1779 1780
1779 1844
1779 1780
1779 1844
1780 1781
1780 1781
1780 37130
1780 37130
1781 37129
1781 37129
1784 1786
1784 1785
1784 1785
1784 1786
1784 37136
1784 37136
1785 37136
1785 37136
1786 1860
1786 1860
1787 1799
1787 1788
1787 1795
1787 1799
1787 1788
1787 1795
1788 24772
1788 1789
1788 24772
1788 1789
1789 1790
1789 24773
1789 1790
1789 24773
1790 1791
1790 24773
1790 24773
1790 1791
1791 1792
1791 1792
1792 1793
1792 24685
1792 1793
1792 24685
1793 1794
1793 23853
1793 1794
1793 23853
1794 1795
1794 1795
1794 1803
1794 1803
1795 1800
1795 1800
1796 1797
1796 1797
1796 1804
1796 1805
1796 1804
1796 1805
1797 29232
1797 29232
1798 1799
1798 1799
1800 1801
1800 1801
1801 1803
1801 1802
1801 1803
1801 1802
1803 1804
1803 1804
1804 28782
1804 29233
1804 29233
1804 28782
1806 25341
1806 25341
1807 1808
1807 1811
1807 42533
1807 1808
1807 1811
1807 42533
1808 1809
1808 1809
1809 1810
1809 1810
1810 1811
1810 1811
1810 5283
1810 5283
1811 41439
1811 41439
1813 1814
1813 1824
1813 1829
1813 1824
1813 1814
1813 1829
1814 1818
1814 1818
1815 1816
1815 1817
1815 1816
1815 1817
1817 1818
1817 1818
1817 1826
1817 1826
1818 1819
1818 1819
1820 1603550
1820 1603550
1822 1823
1822 5295
1822 21888
1822 1823
1822 5295
1822 21888
1823 21586
1823 21586
1824 1839
1824 1839
1826 1827
1826 1861
1826 1827
1826 1861
1827 1828
1827 1857
1827 1828
1827 1857
1828 1829
1828 1829
1828 1840
1828 1840
1829 1839
1829 1839
1831 1832
1831 1833
1831 1832
1831 1833
1833 1834
1833 1835
1833 1834
1833 1835
1835 1836
1835 1837
1835 1836
1835 1837
1837 1838
1837 1838
1837 1871
1837 1871
1838 1868
1838 1882
1838 1882
1838 1868
1839 1840
1839 1840
1840 1841
1840 1841
1841 1842
1841 1856
1841 1842
1841 1856
1842 1844
1842 1843
1842 1844
1842 1843
1844 1862
1844 1862
1854 1856
1854 1862
1854 1855
1854 1856
1854 1862
1854 1855
1855 1860
1855 1860
1856 1857
1856 1857
1857 1858
1857 1858
1858 1859
1858 1861
1858 1859
1858 1861
1859 1861
1859 1861
1860 37135
1860 37135
1863 1864
1863 1867
1863 32902
1863 1864
1863 1867
1863 32902
1864 1865
1864 33712
1864 41695
1864 1865
1864 33712
1864 41695
1865 1866
1865 32941
1865 32942
1865 1866
1865 32941
1865 32942
1866 1867
1866 1867
1866 1968
1866 32941
1866 32941
1866 1968
1867 1968
1867 1974
1867 1968
1867 1974
1868 1869
1868 1869
1868 1870
1868 1870
1869 1872
1869 1872
1870 1871
1870 1871
1871 1872
1871 1872
1873 37172
1873 1874
1873 1875
1873 37172
1873 1874
1873 1875
1874 1878
1874 10293
1874 38736
1874 1878
1874 10293
1874 38736
1875 10099
1875 1876
1875 10099
1875 37364
1875 1876
1875 37364
1876 1877
1876 10098
1876 1877
1876 10098
1877 1878
1877 1878
1877 37158
1877 37158
1878 10159
1878 10159
1879 1880
1879 1880
1879 1881
1879 10103
1879 1881
1879 10103
1880 1888
1880 1888
1881 1882
1881 1882
1881 10102
1881 10102
1882 10101
1882 10101
1884 1887
1884 1885
1884 1887
1884 37126
1884 1885
1884 37126
1885 1886
1885 1886
1885 10138
1885 10138
1886 1889
1886 10097
1886 1889
1886 10097
1887 37127
1887 37127
1888 1889
1888 1889
1890 1891
1890 1891
1890 1900
1890 1900
1891 1899
1891 1899
1896 1897
1896 1901
1896 42798
1896 1603450
1896 1897
1896 1901
1896 42798
1896 1603450
1897 1898
1897 1898
1898 1899
1898 1899
1899 41318
1899 1607720
1899 41318
1899 1607720
1900 1901
1900 32420
1900 32422
1900 1901
1900 32420
1900 32422
1901 1902
1901 32894
1901 1902
1901 32894
1902 1903
1902 1903
1910 1911
1910 1913
1910 35787
1910 1911
1910 1913
1910 35787
1911 1912
1911 1931
1911 1603251
1911 1912
1911 1931
1911 1603251
1912 1913
1912 1913
1912 1603251
1912 1603251
1913 35788
1913 35788
1918 1919
1918 36987
1918 1919
1918 36987
1919 36979
1919 36980
1919 36979
1919 36980
1928 1931
1928 1929
1928 1931
1928 1937
1928 1929
1928 1937
1929 1930
1929 1936
1929 1603249
1929 1930
1929 1936
1929 1603249
1930 1931
1930 1931
1931 1603577
1931 1603577
1932 1933
1932 1934
1932 1940
1932 1993
1932 1933
1932 1934
1932 1940
1932 1993
1933 1937
1933 1937
1933 35832
1933 35832
1934 1935
1934 1943
1934 1603250
1934 1935
1934 1943
1934 1603250
1935 1936
1935 1936
1936 1606260
1936 1606260
1937 35762
1937 35791
1937 35791
1937 35762
1940 1941
1940 1992
1940 1606251
1940 1941
1940 1992
1940 1606251
1941 1942
1941 1603248
1941 1942
1941 1603248
1942 1943
1942 1943
1943 1944
1943 1944
1968 1969
1968 1969
1969 32941
1969 1970
1969 32941
1969 33722
1969 1970
1969 33722
1970 1971
1970 32732
1970 1971
1970 32732
1971 1972
1971 41767
1971 1972
1971 41767
1972 1974
1972 1973
1972 1974
1972 32903
1972 41773
1972 41776
1972 1973
1972 32903
1972 41773
1972 41776
1974 32903
1974 32903
1988 1989
1988 1997
1988 35812
1988 1594981
1988 1989
1988 1997
1988 35812
1988 1594981
1989 1990
1989 1606249
1989 1990
1989 1606249
1990 1992
1990 1991
1990 1992
1990 1991
1991 1992
1991 1992
1993 1994
1993 35835
1993 1994
1993 35835
1994 1995
1994 35833
1994 1995
1994 35833
1995 1996
1995 35815
1995 1996
1995 35815
1996 1997
1996 1997
1996 35814
1996 35814
1997 35813
1997 35813
2021 32229
2021 32231
2021 32236
2021 32231
2021 32229
2021 32236
2023 2024
2023 37015
2023 2024
2023 37015
2024 2025
2024 2025
2024 1600093
2024 1600093
2025 37004
2025 37004
2026 2027
2026 2028
2026 21677
2026 2027
2026 2028
2026 21677
2027 2030
2027 41449
2027 2030
2027 41449
2028 2029
2028 21323
2028 2029
2028 21323
2029 2030
2029 2030
2029 21238
2029 21238
2030 21237
2030 21237
2031 2032
2031 2040
2031 2053
2031 2032
2031 2040
2031 2053
2032 2041
2032 2041
2033 2034
2033 2035
2033 2092
2033 2105
2033 2034
2033 2035
2033 2092
2033 2105
2034 2052
2034 2082
2034 2105
2034 2105
2034 2052
2034 2082
2035 2036
2035 2095
2035 2036
2035 2095
2036 2037
2036 2106
2036 2037
2036 2106
2037 2038
2037 2106
2037 2108
2037 2106
2037 2038
2037 2108
2038 2039
2038 2062
2038 2039
2038 2062
2039 2040
2039 2040
2039 2061
2039 2061
2040 2054
2040 2054
2041 2053
2041 2042
2041 2053
2041 2042
2042 2043
2042 2048
2042 2043
2042 2048
2043 2044
2043 2047
2043 2044
2043 2047
2044 2045
2044 2228
2044 2045
2044 2228
2045 2046
2045 2225
2045 2046
2045 2225
2046 2047
2046 2047
2046 2225
2046 2225
2047 2227
2047 2227
2048 2053
2048 2049
2048 2053
2048 2049
2049 2050
2049 2068
2049 2050
2049 2068
2050 2051
2050 2068
2050 2068
2050 2051
2051 2052
2051 2052
2051 2059
2051 2059
2052 2060
2052 2079
2052 2060
2052 2079
2053 2054
2053 2061
2053 2061
2053 2054
2054 2061
2054 2061
2059 2060
2059 2067
2059 2060
2059 2067
2060 2074
2060 3115
2060 2074
2060 3115
2062 2063
2062 2138
2062 2063
2062 2138
2063 2064
2063 2070
2063 2064
2063 2070
2064 2065
2064 2073
2064 2065
2064 2073
2065 2066
2065 3114
2065 2066
2065 3114
2066 2067
2066 2067
2067 3115
2067 3115
2068 2069
2068 2069
2070 2138
2070 2071
2070 2138
2070 2071
2071 2072
2071 2107
2071 2072
2071 2107
2072 2073
2072 2073
2072 2125
2072 2125
2073 2124
2073 2124
2074 2075
2074 3115
2074 3115
2074 2075
2075 2076
2075 2077
2075 3112
2075 2076
2075 2077
2075 3112
2077 2078
2077 3112
2077 4415
2077 3112
2077 2078
2077 4415
2078 2082
2078 2079
2078 2079
2078 2082
2078 41889
2078 41889
2079 2082
2079 2082
2082 2085
2082 2083
2082 2085
2082 2083
2083 2084
2083 41877
2083 2084
2083 41877
2084 2085
2084 2085
2084 41878
2084 41878
2086 2087
2086 2091
2086 2129
2086 2130
2086 2087
2086 2091
2086 2129
2086 2130
2087 2088
2087 2128
2087 2088
2087 2128
2088 2089
2088 2127
2088 2089
2088 2127
2089 2090
2089 2127
2089 2127
2089 2090
2090 2095
2090 2091
2090 2091
2090 2095
2091 2093
2091 2094
2091 2094
2091 2093
2092 2093
2092 2229
2092 37173
2092 2093
2092 2229
2092 37173
2093 2094
2093 2094
2093 37174
2093 37174
2095 2139
2095 2139
2096 2097
2096 2098
2096 3011
2096 3025
2096 2097
2096 2098
2096 3025
2096 3011
2097 2098
2097 3025
2097 3038
2097 2098
2097 3025
2097 3038
2098 3016
2098 3034
2098 3016
2098 3034
2105 2194
2105 2194
2105 2229
2105 2229
2106 2107
2106 2139
2106 2107
2106 2139
2107 2108
2107 2108
2107 2125
2107 2125
2108 2138
2108 2138
2109 2110
2109 25517
2109 2110
2109 25517
2110 2111
2110 2113
2110 25197
2110 2111
2110 2113
2110 25197
2111 2114
2111 2114
2113 2114
2113 2281
2113 2114
2113 2281
2114 2283
2114 2283
2115 2116
2115 2117
2115 2137
2115 2116
2115 2117
2115 2137
2116 2131
2116 2133
2116 2131
2116 2133
2117 2118
2117 2136
2117 2118
2117 2136
2118 2119
2118 2135
2118 2119
2118 2135
2119 2120
2119 2148
2119 3144
2119 2120
2119 2148
2119 3144
2120 2121
2120 3146
2120 2121
2120 3146
2121 2122
2121 3146
2121 3146
2121 2122
2122 2124
2122 2123
2122 2124
2122 3109
2122 2123
2122 3109
2124 3140
2124 3140
2125 2126
2125 2126
2126 2127
2126 2139
2126 2127
2126 2139
2127 2139
2127 2139
2130 2131
2130 2154
2130 2131
2130 2154
2131 2152
2131 2152
2132 2190
2132 2133
2132 2133
2132 2134
2132 2190
2132 2134
2133 41985
2133 41985
2134 2135
2134 2135
2134 2141
2134 2141
2135 2150
2135 2150
2140 2141
2140 2141
2140 2142
2140 2189
2140 2142
2140 2189
2141 2150
2141 2150
2142 2143
2142 2188
2142 2143
2142 2188
2143 2144
2143 2187
2143 2205
2143 2144
2143 2187
2143 2205
2144 2145
2144 2146
2144 2204
2144 2145
2144 2146
2144 2204
2146 2203
2146 2147
2146 2203
2146 3165
2146 2147
2146 3165
2147 2148
2147 2148
2147 3081
2147 3150
2147 3150
2147 3081
2148 2149
2148 3086
2148 2149
2148 3086
2150 2151
2150 2151
2152 2153
2152 2230
2152 2153
2152 2230
2153 2154
2153 2154
2153 2231
2153 2231
2154 2233
2154 2233
2155 2156
2155 2254
2155 2254
2155 2156
2156 2179
2156 2255
2156 2179
2156 2255
2157 2158
2157 2161
2157 2219
2157 2158
2157 2219
2157 2161
2158 2159
2158 2159
2159 2161
2159 2160
2159 2161
2159 2160
2161 2162
2161 2218
2161 2162
2161 2218
2162 2163
2162 2164
2162 2163
2162 2164
2163 2164
2163 2164
2164 2165
2164 2213
2164 2165
2164 2213
2165 2166
2165 2168
2165 2213
2165 2213
2165 2166
2165 2168
2166 2167
2166 2168
2166 2168
2166 2167
2168 2169
2168 2212
2168 2169
2168 2212
2169 2170
2169 2171
2169 2212
2169 2212
2169 2170
2169 2171
2171 2172
2171 2173
2171 2211
2171 2172
2171 2173
2171 2211
2173 2174
2173 2175
2173 2210
2173 2174
2173 2175
2173 2210
2175 2176
2175 2186
2175 2207
2175 2176
2175 2186
2175 2207
2176 2177
2176 2184
2176 2177
2176 2184
2177 2181
2177 2178
2177 2181
2177 2178
2178 2256
2178 2179
2178 2179
2178 2256
2179 2180
2179 2180
2181 2182
2181 2182
2182 2184
2182 2183
2182 2184
2182 2183
2184 2185
2184 2185
2186 2187
2186 2187
2186 2206
2186 2206
2187 2205
2187 2205
2190 41983
2190 41983
2194 2195
2194 2195
2195 41906
2195 41906
2196 2197
2196 41875
2196 2197
2196 41875
2197 2198
2197 2198
2197 36190
2197 41827
2197 36190
2197 41827
2198 36190
2198 36190
2203 3246
2203 2204
2203 3246
2203 2204
2204 2205
2204 2205
2206 2207
2206 2207
2207 2208
2207 2208
2208 2210
2208 2209
2208 2210
2208 2209
2210 2211
2210 2211
2211 2212
2211 2212
2213 2214
2213 2214
2214 2218
2214 2215
2214 2218
2214 2215
2215 2216
2215 2217
2215 2216
2215 2217
2218 2219
2218 2219
2219 2220
2219 2220
2220 2221
2220 2221
2222 2223
2222 2224
2222 41907
2222 2223
2222 2224
2222 41907
2223 41875
2223 2224
2223 41875
2223 2224
2224 41877
2224 41877
2225 2226
2225 2226
2226 2228
2226 2227
2226 2227
2226 2228
2227 2228
2227 2228
2229 41712
2229 41648
2229 41712
2229 41648
2230 2231
2230 2242
2230 2231
2230 2242
2231 2232
2231 41986
2231 2232
2231 41986
2232 2234
2232 2235
2232 2234
2232 2235
2233 2234
2233 2236
2233 2234
2233 2236
2234 2235
2234 2235
2235 2236
2235 2236
2236 41988
2236 41988
2237 41986
2237 2238
2237 41986
2237 2238
2238 41987
2238 41987
2239 41986
2239 41986
2240 2242
2240 2241
2240 2242
2240 2241
2241 2242
2241 2242
2243 2244
2243 41992
2243 41992
2243 2244
2244 41992
2244 2245
2244 41992
2244 2245
2245 2246
2245 2246
2246 41991
2246 2247
2246 41991
2246 2247
2247 2248
2247 2248
2248 2249
2248 41991
2248 2249
2248 41991
2249 2250
2249 2250
2249 41991
2249 41991
2250 41976
2250 41983
2250 41976
2250 41983
2251 2252
2251 2252
2252 2254
2252 2253
2252 2254
2252 2253
2256 2257
2256 2257
2267 2268
2267 2270
2267 2268
2267 2270
2268 2269
2268 22286
2268 139767
2268 2269
2268 22286
2268 139767
2269 2270
2269 2270
2269 22285
2269 22285
2270 22299
2270 139766
2270 22299
2270 139766
2274 2275
2274 2276
2274 2595
2274 35987
2274 2275
2274 2276
2274 2595
2274 35987
2275 2276
2275 2593
2275 2618
2275 2276
2275 2593
2275 2618
2276 2430
2276 22448
2276 22448
2276 2430
2281 2282
2281 25199
2281 25212
2281 2282
2281 25199
2281 25212
2282 2283
2282 2283
2282 2284
2282 2287
2282 2284
2282 2287
2283 42674
2283 42674
2284 2285
2284 3875
2284 3876
2284 2285
2284 3875
2284 3876
2285 2286
2285 4353
2285 2286
2285 4353
2286 2287
2286 2287
2286 38204
2286 42473
2286 42473
2286 38204
2287 42674
2287 25418
2287 42674
2287 25418
2288 2289
2288 2290
2288 2291
2288 2348
2288 2289
2288 2290
2288 2291
2288 2348
2289 2290
2289 2311
2289 4403
2289 4404
2289 2290
2289 2311
2289 4403
2289 4404
2290 2297
2290 4405
2290 2297
2290 4405
2291 2292
2291 2929
2291 2292
2291 2929
2292 2293
2292 2508
2292 2929
2292 2929
2292 2293
2292 2508
2293 2294
2293 2509
2293 2294
2293 2509
2294 2295
2294 2295
2295 2509
2295 2296
2295 2509
2295 2296
2296 2297
2296 2297
2296 2504
2296 2504
2297 2507
2297 36012
2297 2507
2297 36012
2298 2299
2298 2300
2298 2599
2298 2299
2298 2300
2298 2599
2299 2300
2299 2526
2299 2300
2299 2526
2300 2525
2300 2525
2301 2302
2301 2303
2301 42147
2301 2302
2301 2303
2301 42147
2302 2310
2302 42145
2302 2310
2302 42145
2303 2304
2303 40753
2303 2304
2303 40753
2304 2305
2304 40752
2304 2305
2304 40752
2305 2306
2305 42937
2305 2306
2305 42937
2306 2307
2306 42955
2306 2307
2306 42955
2307 2308
2307 42952
2307 2308
2307 42952
2308 2309
2308 42954
2308 2309
2308 42954
2309 2310
2309 2310
2311 2312
2311 4403
2311 4403
2311 2312
2312 2313
2312 2314
2312 12939
2312 2313
2312 2314
2312 12939
2314 2315
2314 2315
2315 42145
2315 2316
2315 42145
2315 42979
2315 2316
2315 42979
2316 2317
2316 2317
2317 2318
2317 2318
2318 2319
2318 42959
2318 2319
2318 42959
2319 2320
2319 42966
2319 2320
2319 42966
2320 2321
2320 2322
2320 2321
2320 2322
2322 2323
2322 42991
2322 2323
2322 42991
2323 2324
2323 42990
2323 2324
2323 42990
2324 2325
2324 2326
2324 2325
2324 2326
2326 2327
2326 42989
2326 2327
2326 42989
2338 2340
2338 2340
2340 2341
2340 42997
2340 2341
2340 42997
2341 2342
2341 2343
2341 2342
2341 2343
2343 2344
2343 42995
2343 2344
2343 42995
2344 42966
2344 2345
2344 42966
2344 2345
2345 2346
2345 42973
2345 2346
2345 42973
2346 2348
2346 2347
2346 2348
2346 2347
2348 2925
2348 2925
2349 2350
2349 2357
2349 2350
2349 2357
2350 2351
2350 2351
2351 2352
2351 2364
2351 2352
2351 2364
2352 2353
2352 2361
2352 2353
2352 2361
2353 2354
2353 2354
2354 2355
2354 2359
2354 2355
2354 2359
2355 2356
2355 2360
2355 2356
2355 2360
2356 2357
2356 2357
2356 36007
2356 36007
2357 22446
2357 22446
2358 2359
2358 2360
2358 2359
2358 2360
2358 2368
2358 2368
2359 2361
2359 2361
2360 2408
2360 2408
2361 2362
2361 2362
2362 2363
2362 2369
2362 2363
2362 2369
2363 2364
2363 2364
2363 36008
2363 36008
2364 36009
2364 36009
2365 2366
2365 2367
2365 4424
2365 2366
2365 2367
2365 4424
2366 2367
2366 4392
2366 2367
2366 4392
2367 42200
2367 42200
2368 2369
2368 2404
2368 2369
2368 2404
2369 2405
2369 2405
2370 2371
2370 2374
2370 2407
2370 2371
2370 2374
2370 2407
2371 2404
2371 2372
2371 2404
2371 2372
2372 2373
2372 2414
2372 2373
2372 2414
2373 2374
2373 2374
2374 36006
2374 36006
2375 2376
2375 2377
2375 2521
2375 2376
2375 2377
2375 2521
2376 2406
2376 2516
2376 2517
2376 2406
2376 2516
2376 2517
2377 2378
2377 2379
2377 2378
2377 2379
2379 2521
2379 2380
2379 2521
2379 2380
2380 2381
2380 2381
2381 2382
2381 2382
2382 2525
2382 2383
2382 2525
2382 2383
2383 2384
2383 2546
2383 2384
2383 2546
2384 2385
2384 2545
2384 2385
2384 2545
2385 2386
2385 2551
2385 10124
2385 2386
2385 2551
2385 10124
2386 2387
2386 2447
2386 2387
2386 2447
2387 2388
2387 2447
2387 2449
2387 2447
2387 2388
2387 2449
2388 2389
2388 2393
2388 2389
2388 2393
2389 2390
2389 2391
2389 2390
2389 2391
2391 2392
2391 2392
2393 2394
2393 38843
2393 2394
2393 38843
2394 2395
2394 2445
2394 2395
2394 2445
2395 2396
2395 2397
2395 2396
2395 2397
2397 2398
2397 2399
2397 2398
2397 2399
2399 2400
2399 2401
2399 2400
2399 2401
2401 2402
2401 2403
2401 2402
2401 2403
2403 2404
2403 2404
2403 2415
2403 2415
2404 2405
2404 2405
2405 2406
2405 2406
2406 36008
2406 36008
2407 2408
2407 2408
2407 36005
2407 36005
2408 36002
2408 36002
2409 2410
2409 2411
2409 36259
2409 38842
2409 2410
2409 2411
2409 38842
2409 36259
2410 2445
2410 2415
2410 2415
2410 2445
2411 2412
2411 36259
2411 36259
2411 2412
2412 2413
2412 37175
2412 2413
2412 37175
2413 2414
2413 2414
2413 41394
2413 41394
2414 2421
2414 22447
2414 36006
2414 36006
2414 22447
2414 2421
2415 2416
2415 2416
2417 2418
2417 2423
2417 2443
2417 37177
2417 2418
2417 2423
2417 2443
2417 37177
2418 2419
2418 2472
2418 2419
2418 2472
2419 2420
2419 2420
2420 2421
2420 2421
2420 2435
2420 2435
2421 2422
2421 2422
2422 41394
2422 2423
2422 2423
2422 41394
2423 37175
2423 37175
2424 2425
2424 2426
2424 35993
2424 2425
2424 2426
2424 35993
2425 2428
2425 35994
2425 2428
2425 35994
2426 2427
2426 2427
2427 2428
2427 2428
2427 35996
2427 35996
2428 40559
2428 40559
2429 2430
2429 22447
2429 2430
2429 22447
2429 36001
2429 36001
2430 40560
2430 40560
2431 2432
2431 2433
2431 37179
2431 2432
2431 2433
2431 37179
2432 2439
2432 37178
2432 2439
2432 37178
2433 40560
2433 2434
2433 40560
2433 2434
2434 2435
2434 2435
2434 35990
2434 35990
2435 2436
2435 2436
2436 2437
2436 2476
2436 2437
2436 2476
2437 2438
2437 2477
2437 2438
2437 2477
2438 2439
2438 2439
2438 40565
2438 40565
2439 40564
2439 40564
2440 2441
2440 2442
2440 2490
2440 2441
2440 2442
2440 2490
2441 2444
2441 37176
2441 2444
2441 37176
2442 2443
2442 2443
2442 2473
2442 2473
2443 2444
2443 2472
2443 2472
2443 2444
2445 38841
2445 38841
2446 2447
2446 2447
2446 2448
2446 2457
2446 10123
2446 2448
2446 2457
2446 10123
2448 2449
2448 2449
2448 2462
2448 2462
2449 38842
2449 38843
2449 38843
2449 38842
2450 2451
2450 2452
2450 37182
2450 2451
2450 2452
2450 37182
2451 2454
2451 37183
2451 42793
2451 2454
2451 37183
2451 42793
2452 2453
2452 2455
2452 2453
2452 2455
2453 2454
2453 2454
2453 2456
2453 2456
2454 36258
2454 36258
2455 2456
2455 2495
2455 2456
2455 2495
2456 2493
2456 2493
2457 2458
2457 2464
2457 2458
2457 2464
2458 2459
2458 2464
2458 2467
2458 2464
2458 2459
2458 2467
2459 37183
2459 2460
2459 37183
2459 42791
2459 2460
2459 42791
2460 42793
2460 36258
2460 2461
2460 36258
2460 42793
2460 2461
2461 36259
2461 2462
2461 2462
2461 36259
2462 38842
2462 38842
2463 2464
2463 2464
2463 2465
2463 2468
2463 2465
2463 2468
2465 2466
2465 2527
2465 2466
2465 2527
2466 2467
2466 2467
2466 2471
2466 2471
2467 2470
2467 42791
2467 42791
2467 2470
2468 2469
2468 2470
2468 40710
2468 2470
2468 2469
2468 40710
2469 2527
2469 2471
2469 2471
2469 2527
2470 2541
2470 42792
2470 42792
2470 2541
2471 2528
2471 2528
2472 2476
2472 2476
2473 2474
2473 42790
2473 2474
2473 42790
2474 2475
2474 40568
2474 2475
2474 40568
2475 2476
2475 2477
2475 2476
2475 2477
2475 40567
2475 40567
2477 40566
2477 40566
2478 2479
2478 2480
2478 2656
2478 2479
2478 2480
2478 2656
2479 2490
2479 2490
2479 2540
2479 2540
2480 2481
2480 2500
2480 2481
2480 2500
2481 2482
2481 2502
2481 2482
2481 2502
2482 37179
2482 2483
2482 37179
2482 2483
2483 37178
2483 2484
2483 37178
2483 2484
2484 40564
2484 2485
2484 40564
2484 2485
2485 2486
2485 40570
2485 2486
2485 40570
2486 2487
2486 40572
2486 2487
2486 40572
2487 2488
2487 2499
2487 2488
2487 2499
2488 2489
2488 2498
2488 2489
2488 2498
2489 2490
2489 2490
2489 2497
2489 2497
2491 2493
2491 2492
2491 2493
2491 2532
2491 2492
2491 2532
2492 2495
2492 2495
2492 2533
2492 2533
2493 2494
2493 2494
2494 2495
2494 2495
2494 2503
2494 2503
2497 2499
2497 2499
2499 41393
2499 41393
2500 2501
2500 41390
2500 2501
2500 41390
2501 2502
2501 2502
2502 40561
2502 40561
2504 2505
2504 2515
2504 2505
2504 2515
2505 2506
2505 2506
2506 2507
2506 2507
2506 37181
2506 37181
2507 41381
2507 41381
2508 2509
2508 2510
2508 2516
2508 2926
2508 2928
2508 2509
2508 2516
2508 2510
2508 2928
2508 2926
2510 2516
2510 2511
2510 2516
2510 2511
2511 2517
2511 2512
2511 2517
2511 2512
2512 2513
2512 2513
2513 2514
2513 2514
2514 2515
2514 2515
2514 36015
2514 36015
2515 37180
2515 37180
2516 2517
2516 2522
2516 2517
2516 2522
2518 2526
2518 2519
2518 2520
2518 2526
2518 2519
2518 2520
2519 2925
2519 2523
2519 2925
2519 2523
2520 2526
2520 2521
2520 2521
2520 2526
2522 2926
2522 2523
2522 2926
2522 2523
2523 2524
2523 2524
2525 2610
2525 2610
2527 2528
2527 2528
2532 2533
2532 2533
2533 42792
2533 42792
2534 2535
2534 2536
2534 2659
2534 2535
2534 2536
2534 2659
2535 2542
2535 2660
2535 2542
2535 2660
2536 2537
2536 2659
2536 2659
2536 2537
2537 2538
2537 2786
2537 2538
2537 2786
2538 2539
2538 2657
2538 2539
2538 2657
2539 2540
2539 2540
2540 2541
2540 2541
2541 2542
2541 2542
2542 40710
2542 40710
2543 2544
2543 3973
2543 2544
2543 3973
2544 3266
2544 3266
2545 2547
2545 2549
2545 2547
2545 2549
2546 2547
2546 2591
2546 2547
2546 2591
2547 2590
2547 2590
2548 2549
2548 2549
2548 2550
2548 2552
2548 2558
2548 2550
2548 2552
2548 2558
2549 2590
2549 2590
2550 2551
2550 2551
2550 2554
2550 2554
2551 10125
2551 10125
2552 2553
2552 2557
2552 2589
2552 2553
2552 2557
2552 2589
2553 2554
2553 2554
2553 9950
2553 9950
2554 10122
2554 10122
2555 2557
2555 2556
2555 2557
2555 2639
2555 41284
2555 2556
2555 2639
2555 41284
2556 2558
2556 2558
2556 2602
2556 2602
2557 42206
2557 42206
2558 2604
2558 2604
2559 2560
2559 2582
2559 2987
2559 2560
2559 2582
2559 2987
2560 2803
2560 2561
2560 2803
2560 3078
2560 2561
2560 3078
2561 2787
2561 2562
2561 2787
2561 2562
2562 2563
2562 2650
2562 2680
2562 2563
2562 2650
2562 2680
2563 2564
2563 2651
2563 40941
2563 2564
2563 2651
2563 40941
2564 2565
2564 2565
2565 40941
2565 2566
2565 40941
2565 2566
2566 2567
2566 2665
2566 37188
2566 2567
2566 2665
2566 37188
2567 2568
2567 2653
2567 2568
2567 2653
2568 2569
2568 2574
2568 2569
2568 2574
2569 2570
2569 2573
2569 2570
2569 2573
2570 2571
2570 2572
2570 2571
2570 2572
2573 2574
2573 2574
2574 2575
2574 2575
2575 2652
2575 2576
2575 2652
2575 3032
2575 2576
2575 3032
2576 2577
2576 2577
2577 3032
2577 2578
2577 3032
2577 2578
2578 2579
2578 3050
2578 2579
2578 3050
2579 2580
2579 2981
2579 2580
2579 2981
2580 2581
2580 2978
2580 2985
2580 2581
2580 2978
2580 2985
2581 2582
2581 2582
2581 2957
2581 2957
2582 2583
2582 2583
2584 2585
2584 2586
2584 2632
2584 2585
2584 2586
2584 2632
2585 2589
2585 2589
2585 2633
2585 42202
2585 2633
2585 42202
2586 2587
2586 2588
2586 2587
2586 2588
2588 2589
2588 2589
2588 9951
2588 35533
2588 9951
2588 35533
2589 9950
2589 9950
2590 2591
2590 2591
2592 2593
2592 2593
2592 2594
2592 2679
2592 31338
2592 2594
2592 2679
2592 31338
2593 2617
2593 40941
2593 40941
2593 2617
2594 2595
2594 2595
2594 40761
2594 40761
2595 35985
2595 35985
2599 2600
2599 2925
2599 2925
2599 2600
2600 2601
2600 42950
2600 2601
2600 42950
2601 2602
2601 2602
2601 2636
2601 42936
2601 2636
2601 42936
2602 2603
2602 2603
2604 2605
2604 2606
2604 2605
2604 2606
2606 2607
2606 2608
2606 2607
2606 2608
2608 2609
2608 2609
2611 2612
2611 2613
2611 2620
2611 2612
2611 2613
2611 2620
2612 2614
2612 37184
2612 2614
2612 37184
2613 40710
2613 2614
2613 40710
2613 2614
2614 35534
2614 35534
2615 2617
2615 2616
2615 2617
2615 2667
2615 2616
2615 2667
2616 2619
2616 2668
2616 2619
2616 2668
2617 37188
2617 37188
2618 2619
2618 2664
2618 2619
2618 2664
2619 2663
2619 2668
2619 2669
2619 2668
2619 2663
2619 2669
2620 2621
2620 2623
2620 2621
2620 2623
2621 2622
2621 42212
2621 2622
2621 42212
2622 2623
2622 2623
2622 42211
2622 42211
2623 2627
2623 2627
2624 2627
2624 2625
2624 2627
2624 2625
2625 41613
2625 2626
2625 41613
2625 2626
2626 2627
2626 2627
2626 2788
2626 2788
2630 2632
2630 2631
2630 2632
2630 2646
2630 2931
2630 2631
2630 2646
2630 2931
2631 2636
2631 2634
2631 2636
2631 2932
2631 2634
2631 2932
2632 2649
2632 37185
2632 2649
2632 37185
2633 2634
2633 2637
2633 42202
2633 42202
2633 2634
2633 2637
2634 2635
2634 2637
2634 2637
2634 2635
2636 42934
2636 42934
2637 2638
2637 2638
2638 2639
2638 41284
2638 2639
2638 41284
2639 2640
2639 2640
2642 2809
2642 2809
2646 2647
2646 2647
2647 2934
2647 2938
2647 2934
2647 2938
2648 2649
2648 40749
2648 2649
2648 40749
2649 42201
2649 42201
2650 2651
2650 2673
2650 2651
2650 2673
2651 31338
2651 31338
2652 2653
2652 2935
2652 2653
2652 2935
2653 2654
2653 2666
2653 2654
2653 2666
2654 2663
2654 2655
2654 2663
2654 2655
2655 2656
2655 2664
2655 2656
2655 2662
2655 2664
2655 2662
2656 2664
2656 2664
2657 2786
2657 2658
2657 2786
2657 2658
2658 2659
2658 2786
2658 2659
2658 2786
2660 2661
2660 2661
2660 2672
2660 2672
2661 2671
2661 2671
2662 2663
2662 2663
2663 2669
2663 2670
2663 2669
2663 2670
2665 2666
2665 2667
2665 2667
2665 2666
2666 2670
2666 2670
2667 37188
2667 37188
2668 2669
2668 2669
2669 2670
2669 2670
2671 2788
2671 2672
2671 2672
2671 2788
2672 2788
2672 2788
2673 2679
2673 2674
2673 2679
2673 2674
2674 2675
2674 2675
2675 2680
2675 2676
2675 2680
2675 2676
2676 2677
2676 2688
2676 18349
2676 2677
2676 2688
2676 18349
2677 2678
2677 22935
2677 22936
2677 2678
2677 22935
2677 22936
2678 2679
2678 2679
2678 42182
2678 42182
2680 2787
2680 2689
2680 2787
2680 2689
2681 2682
2681 2683
2681 41636
2681 2682
2681 2683
2681 41636
2682 2687
2682 35098
2682 2687
2682 35098
2683 2684
2683 43439
2683 2684
2683 43439
2684 2685
2684 43438
2684 2685
2684 43438
2685 2686
2685 41630
2685 2686
2685 41630
2686 2687
2686 2687
2686 40576
2686 40953
2686 40576
2686 40953
2687 35099
2687 35099
2688 2689
2688 2708
2688 18348
2688 2689
2688 2708
2688 18348
2689 2787
2689 2690
2689 2787
2689 2690
2690 2691
2690 40743
2690 2691
2690 40743
2691 2692
2691 2800
2691 39948
2691 2692
2691 39948
2691 2800
2692 2693
2692 40727
2692 2693
2692 40727
2693 2694
2693 42117
2693 2694
2693 42117
2694 2695
2694 42116
2694 2695
2694 42116
2695 2696
2695 42115
2695 2696
2695 42115
2696 2697
2696 2705
2696 2697
2696 2705
2697 2698
2697 2698
2698 2699
2698 2703
2698 2699
2698 2703
2699 2700
2699 2702
2699 2700
2699 2702
2700 2701
2700 2702
2700 2702
2700 2701
2703 2705
2703 2704
2703 2705
2703 2704
2705 2706
2705 2706
2706 2707
2706 42114
2706 2707
2706 42114
2707 2708
2707 2708
2707 19985
2707 19985
2708 19984
2708 19984
2709 2710
2709 2716
2709 2736
2709 2756
2709 2710
2709 2716
2709 2736
2709 2756
2710 2711
2710 2735
2710 2711
2710 2735
2711 2712
2711 2734
2711 2712
2711 2734
2712 2713
2712 2747
2712 2713
2712 2747
2713 2714
2713 2714
2714 2715
2714 35964
2714 2715
2714 35964
2715 2716
2715 2716
2716 2723
2716 2723
2717 2718
2717 2721
2717 2718
2717 2721
2718 2719
2718 2726
2718 2719
2718 2726
2719 2720
2719 35967
2719 2720
2719 35967
2720 2721
2720 2721
2721 35967
2721 35967
2722 2723
2722 2723
2722 2727
2722 37187
2722 2727
2722 37187
2723 2724
2723 2724
2724 35964
2724 2725
2724 35964
2724 2725
2725 2726
2725 2726
2725 2739
2725 2739
2726 2727
2726 35968
2726 2727
2726 35968
2727 37186
2727 37186
2730 2736
2730 2731
2730 2736
2730 2761
2730 2731
2730 2761
2731 2732
2731 2785
2731 2732
2731 2785
2732 2733
2732 2784
2732 2733
2732 2784
2733 2734
2733 2734
2733 2741
2733 2741
2734 2735
2734 2735
2736 2737
2736 2737
2738 2739
2738 2739
2738 2740
2738 2740
2739 2740
2739 35966
2739 2740
2739 35966
2740 23164
2740 23164
2741 2742
2741 2743
2741 2742
2741 2743
2743 2744
2743 3178
2743 2744
2743 3178
2744 2745
2744 3188
2744 2745
2744 3188
2745 2746
2745 35664
2745 2746
2745 35664
2746 2747
2746 2747
2746 23168
2746 23168
2747 23161
2747 35963
2747 23161
2747 35963
2749 2750
2749 2813
2749 2750
2749 2813
2750 2751
2750 2811
2750 2751
2750 2811
2755 2756
2755 2756
2755 2759
2755 2771
2755 2759
2755 2771
2756 2757
2756 2762
2756 2757
2756 2762
2757 2758
2757 2758
2758 37187
2758 2759
2758 2759
2758 37187
2759 37186
2759 37186
2760 2761
2760 2761
2760 2763
2760 2780
2760 2763
2760 2780
2761 37726
2761 37726
2762 2771
2762 2763
2762 2771
2762 2763
2763 2772
2763 2772
2764 2765
2764 2770
2764 3193
2764 2765
2764 2770
2764 3193
2765 2766
2765 2767
2765 2766
2765 2767
2767 2768
2767 3228
2767 2768
2767 3228
2768 2769
2768 40735
2768 2769
2768 40735
2769 2770
2769 2770
2769 3207
2769 3207
2770 3194
2770 3194
2771 2772
2771 2772
2772 2779
2772 2779
2773 2774
2773 2777
2773 3212
2773 9645
2773 2774
2773 2777
2773 3212
2773 9645
2774 2775
2774 3192
2774 2775
2774 3192
2775 2776
2775 2776
2776 2777
2776 2777
2776 3167
2776 3167
2777 2778
2777 2778
2779 2780
2779 2780
2780 37727
2780 37727
2781 2785
2781 2782
2781 2785
2781 42782
2781 2782
2781 42782
2782 2783
2782 42781
2782 2783
2782 42781
2783 2784
2783 2784
2783 37189
2783 37189
2784 3210
2784 3210
2785 42783
2785 42783
2792 2809
2792 2793
2792 2795
2792 2809
2792 2793
2792 2795
2793 2794
2793 2823
2793 2794
2793 2823
2794 2795
2794 2795
2794 2824
2794 2824
2795 2810
2795 2810
2795 21883
2795 21883
2796 2797
2796 2798
2796 2821
2796 2797
2796 2798
2796 2821
2797 2802
2797 2822
2797 2802
2797 2822
2798 2800
2798 2799
2798 2800
2798 2799
2800 2801
2800 2801
2801 40743
2801 2802
2801 2802
2801 40743
2802 2829
2802 2829
2803 2804
2803 3071
2803 2804
2803 3071
2804 2805
2804 2808
2804 2805
2804 2808
2805 2806
2805 2806
2806 2807
2806 2807
2809 2810
2809 21602
2809 2810
2809 21602
2810 21590
2810 21590
2811 2812
2811 21605
2811 2812
2811 21605
2812 2814
2812 3215
2812 21606
2812 2814
2812 3215
2812 21606
2813 2814
2813 3216
2813 3242
2813 3242
2813 2814
2813 3216
2814 3215
2814 3215
2815 2822
2815 2816
2815 2822
2815 2837
2815 2816
2815 2837
2816 2817
2816 2858
2816 2817
2816 2858
2817 2818
2817 2853
2817 2818
2817 2853
2818 2819
2818 2853
2818 2853
2818 2819
2819 2820
2819 2851
2819 2820
2819 2851
2820 2821
2820 2821
2820 2847
2820 2847
2821 2850
2821 2850
2822 2835
2822 2835
2823 2824
2823 21601
2823 21901
2823 2824
2823 21601
2823 21901
2824 2956
2824 21882
2824 21882
2824 2956
2825 21586
2825 21586
2829 37079
2829 2830
2829 37079
2829 2830
2830 2831
2830 2839
2830 2831
2830 2839
2831 2832
2831 2840
2831 2832
2831 2840
2832 2833
2832 2840
2832 2840
2832 2833
2833 2834
2833 2838
2833 2834
2833 2838
2834 2835
2834 2835
2834 2836
2834 2836
2836 2837
2836 2838
2836 2837
2836 2838
2837 37072
2837 37072
2838 2839
2838 2839
2839 2840
2839 2840
2841 2842
2841 2953
2841 2842
2841 2953
2842 2843
2842 5606
2842 2843
2842 5606
2843 2844
2843 5305
2843 2844
2843 5305
2844 2845
2844 5304
2844 2845
2844 5304
2847 2848
2847 2852
2847 2848
2847 2852
2848 2849
2848 2865
2848 2849
2848 2865
2849 2850
2849 2850
2849 2864
2849 2864
2850 39948
2850 39948
2851 2853
2851 2852
2851 2853
2851 2852
2852 2859
2852 2859
2855 5295
2855 2857
2855 5295
2855 2857
2857 5311
2857 5311
2858 2859
2858 3100
2858 2859
2858 3100
2859 2875
2859 2875
2860 2861
2860 2866
2860 42105
2860 2861
2860 2866
2860 42105
2861 2862
2861 2868
2861 2901
2861 2862
2861 2868
2861 2901
2862 2863
2862 2870
2862 2863
2862 2870
2863 2864
2863 2864
2863 36260
2863 36260
2864 39948
2864 2878
2864 39948
2864 2878
2865 2866
2865 2875
2865 2875
2865 2866
2866 34191
2866 34191
2867 2868
2867 2868
2867 2869
2867 2916
2867 2869
2867 2916
2868 3111
2868 3111
2869 2870
2869 2870
2869 2912
2869 2912
2870 2909
2870 2909
2871 2872
2871 2874
2871 2902
2871 2872
2871 2874
2871 2902
2872 2873
2872 14731
2872 40745
2872 2873
2872 14731
2872 40745
2873 2874
2873 2874
2873 9167
2873 9167
2874 2904
2874 2904
2875 3099
2875 3099
2876 2878
2876 2877
2876 2878
2876 2911
2876 2877
2876 2911
2877 2879
2877 2906
2877 2879
2877 2906
2878 2879
2878 2879
2879 2907
2879 2907
2880 2881
2880 2889
2880 35969
2880 2881
2880 2889
2880 35969
2881 2882
2881 23167
2881 2882
2881 23167
2882 2883
2882 23163
2882 2883
2882 23163
2883 2884
2883 23159
2883 2884
2883 23159
2884 2885
2884 23128
2884 2885
2884 23128
2885 2886
2885 23128
2885 23128
2885 2886
2886 2887
2886 23133
2886 2887
2886 23133
2887 2888
2887 23074
2887 23106
2887 23118
2887 2888
2887 23074
2887 23106
2887 23118
2888 2889
2888 2889
2889 38083
2889 38083
2890 2901
2890 2891
2890 2901
2890 3083
2890 37062
2890 2891
2890 3083
2890 37062
2891 2902
2891 40745
2891 2892
2891 2902
2891 40745
2891 2892
2892 2904
2892 2893
2892 2904
2892 2893
2893 2904
2893 2894
2893 2904
2893 2894
2894 2895
2894 2923
2894 2895
2894 2923
2895 2896
2895 2922
2895 2896
2895 2922
2896 2897
2896 2898
2896 2897
2896 2898
2897 2898
2897 2898
2898 2899
2898 2899
2899 3111
2899 2900
2899 3111
2899 2900
2900 2901
2900 2901
2902 2903
2902 2903
2905 2906
2905 2907
2905 2906
2905 2907
2905 42785
2905 42785
2906 2909
2906 2909
2907 36260
2907 36260
2908 2909
2908 2909
2908 2910
2908 2915
2908 2910
2908 2915
2910 2911
2910 2911
2910 2920
2910 2920
2911 37193
2911 37193
2912 2916
2912 2913
2912 2916
2912 2913
2913 2914
2913 2921
2913 2914
2913 2921
2914 2915
2914 2920
2914 2915
2914 2920
2916 2917
2916 2917
2917 2922
2917 2918
2917 2922
2917 2918
2918 2919
2918 2924
2918 2919
2918 2924
2919 2920
2919 2920
2922 3111
2922 3111
2923 2924
2923 9168
2923 2924
2923 9168
2924 37191
2924 37191
2926 2927
2926 2927
2927 2928
2927 2928
2928 2929
2928 2929
2931 2932
2931 2936
2931 2932
2931 2936
2932 42941
2932 42941
2933 2934
2933 2935
2933 2934
2933 2935
2933 2944
2933 2944
2934 2941
2934 2943
2934 2941
2934 2943
2935 2947
2935 2947
2936 2937
2936 2983
2936 2937
2936 2983
2937 2938
2937 2938
2937 2940
2937 2940
2938 2942
2938 2942
2939 2941
2939 2940
2939 2940
2939 2941
2939 2951
2939 2951
2940 2982
2940 2982
2941 2942
2941 2945
2941 2952
2941 2942
2941 2945
2941 2952
2943 2944
2943 2944
2943 2946
2943 2949
2943 2946
2943 2949
2944 2949
2944 2949
2945 2946
2945 2950
2945 2946
2945 2950
2946 2950
2946 2950
2947 2948
2947 2971
2947 2948
2947 2971
2948 2952
2948 2949
2948 2949
2948 2952
2948 2973
2948 2973
2949 2950
2949 2950
2951 2952
2951 2970
2951 2952
2951 2970
2952 2970
2952 2970
2953 2954
2953 2955
2953 2954
2953 2955
2954 2956
2954 2956
2954 2967
2954 2968
2954 2967
2954 2968
2955 21882
2955 2956
2955 2956
2955 21882
2956 21901
2956 21901
2957 2958
2957 2959
2957 2958
2957 2959
2958 2962
2958 2988
2958 2962
2958 2988
2959 2985
2959 2960
2959 2985
2959 2960
2960 2961
2960 2961
2961 2985
2961 2962
2961 2962
2961 2985
2962 2984
2962 2984
2963 2964
2963 2969
2963 2964
2963 2969
2964 2965
2964 2995
2964 3013
2964 2965
2964 3013
2964 2995
2965 3014
2965 3014
2968 21901
2968 2969
2968 2989
2968 21901
2968 2969
2968 2989
2969 2992
2969 2992
2970 2975
2970 2986
2970 2986
2970 2975
2971 2972
2971 2973
2971 2979
2971 2973
2971 2972
2971 2979
2972 2973
2972 2973
2972 2974
2972 2976
2972 2974
2972 2976
2973 2974
2973 2974
2974 2975
2974 2975
2975 2976
2975 2980
2975 2976
2975 2980
2976 2979
2976 2979
2976 2980
2976 2980
2977 2978
2977 2986
2977 2980
2977 2978
2977 2980
2977 2986
2978 2979
2978 2986
2978 2986
2978 2979
2979 2981
2979 2981
2981 3050
2981 3050
2982 3011
2982 2983
2982 2983
2982 2984
2982 3011
2982 3012
2982 2984
2982 3012
2983 40752
2983 40752
2984 3001
2984 3001
2987 2988
2987 3021
2987 2988
2987 3021
2988 3020
2988 3020
2989 2990
2989 2994
2989 2997
2989 2990
2989 2994
2989 2997
2990 2991
2990 2996
2990 2991
2990 2996
2991 2992
2991 2992
2991 36263
2991 36263
2993 2995
2993 2994
2993 2994
2993 2995
2993 3037
2993 3058
2993 3037
2993 3058
2994 2999
2994 3000
2994 2999
2994 3000
2995 2996
2995 3019
2995 2996
2995 3019
2996 36263
2996 36263
2997 21901
2997 2998
2997 21901
2997 2998
2998 21601
2998 2999
2998 2999
2998 21601
2999 3058
2999 3058
2999 21885
2999 21885
3001 3017
3001 3018
3001 3017
3001 3018
3003 3004
3003 3005
3003 33329
3003 33366
3003 33376
3003 3004
3003 3005
3003 33366
3003 33329
3003 33376
3004 3010
3004 32897
3004 33329
3004 33329
3004 3010
3004 32897
3005 3006
3005 33375
3005 3006
3005 33375
3006 3007
3006 33323
3006 42034
3006 3007
3006 33323
3006 42034
3007 3008
3007 33324
3007 3008
3007 33324
3008 3009
3008 42128
3008 3009
3008 42128
3009 3010
3009 3010
3009 42130
3009 42130
3010 32898
3010 32898
3011 3012
3011 3016
3011 3016
3011 3012
3012 4422
3012 40751
3012 40751
3012 4422
3013 3014
3013 3019
3013 21898
3013 3014
3013 3019
3013 21898
3014 21890
3014 21897
3014 21890
3014 21897
3015 3016
3015 3017
3015 3016
3015 3017
3015 3024
3015 3024
3016 3036
3016 3036
3017 3018
3017 3018
3018 3020
3018 3020
3018 3023
3018 3023
3019 3037
3019 3037
3020 3022
3020 3022
3021 3022
3021 42098
3021 3022
3021 42098
3022 3024
3022 3024
3023 3024
3023 3024
3025 3041
3025 3041
3026 3027
3026 3031
3026 3047
3026 3106
3026 3027
3026 3031
3026 3047
3026 3106
3027 3028
3027 40746
3027 3028
3027 40746
3028 42098
3028 3029
3028 42098
3028 3029
3029 3030
3029 3035
3029 3030
3029 3035
3030 3031
3030 3031
3030 3033
3030 3033
3031 3039
3031 3047
3031 3047
3031 3039
3032 3050
3032 3050
3033 3034
3033 3035
3033 3034
3033 3035
3034 3038
3034 3038
3035 3036
3035 3036
3036 42098
3036 42098
3037 21884
3037 21884
3038 3039
3038 3041
3038 3041
3038 3039
3039 3040
3039 3040
3040 3043
3040 3048
3040 3043
3040 3048
3041 3042
3041 3042
3042 3043
3042 3043
3042 4420
3042 4420
3043 3046
3043 3046
3044 3048
3044 3046
3044 3045
3044 3046
3044 3048
3044 3045
3045 3046
3045 3046
3045 3139
3045 3139
3047 3049
3047 3049
3048 3049
3048 3105
3048 3049
3048 3105
3049 3106
3049 3106
3058 21884
3058 21884
3059 3060
3059 3061
3059 3113
3059 3060
3059 3061
3059 3113
3060 3066
3060 21710
3060 21714
3060 3066
3060 21714
3060 21710
3061 3062
3061 3113
3061 3113
3061 3062
3062 3063
3062 21685
3062 21687
3062 3063
3062 21685
3062 21687
3063 3064
3063 21683
3063 3064
3063 21683
3064 3065
3064 21680
3064 3065
3064 21680
3065 3066
3065 3066
3065 21716
3065 21716
3066 3067
3066 3067
3068 3069
3068 3077
3068 10270
3068 3069
3068 3077
3068 10270
3069 3070
3069 3070
3069 3108
3069 35941
3069 35941
3069 3108
3070 35941
3070 35941
3071 3072
3071 10167
3071 3072
3071 10167
3072 3073
3072 3074
3072 3073
3072 3074
3074 10167
3074 3075
3074 10167
3074 3075
3075 3076
3075 10166
3075 3076
3075 10166
3076 3077
3076 3077
3076 14751
3076 14751
3077 10269
3077 10269
3078 3079
3078 3079
3079 10168
3079 10168
3080 3150
3080 3081
3080 3081
3080 3082
3080 3150
3080 3082
3081 3086
3081 3086
3082 3083
3082 3083
3082 3259
3082 3259
3083 3084
3083 3084
3084 25442
3084 3085
3084 25442
3084 3085
3085 3086
3085 3086
3085 3142
3085 3142
3087 3088
3087 3098
3087 41462
3087 3088
3087 3098
3087 41462
3088 9167
3088 9168
3088 3089
3088 9167
3088 9168
3088 3089
3089 3090
3089 14748
3089 3090
3089 14748
3090 3091
3090 9653
3090 3091
3090 9653
3091 3092
3091 40742
3091 3092
3091 40742
3092 3093
3092 9650
3092 3093
3092 9650
3093 3094
3093 9650
3093 9650
3093 3094
3094 3095
3094 20350
3094 3095
3094 20350
3095 3096
3095 20352
3095 3096
3095 20352
3096 3098
3096 3097
3096 3098
3096 3097
3098 41465
3098 41465
3099 3103
3099 3103
3100 3101
3100 3101
3101 3102
3101 37070
3101 3102
3101 37070
3102 3103
3102 3103
3102 3107
3102 3107
3103 3107
3103 3107
3104 3106
3104 3105
3104 3105
3104 3106
3104 3141
3104 3141
3105 3140
3105 3138
3105 3140
3105 3138
3107 37069
3107 37069
3108 3109
3108 3109
3108 3110
3108 3110
3109 3110
3109 3140
3109 3140
3109 3110
3110 3141
3110 3141
3110 40747
3110 40747
3112 3117
3112 3117
3113 21709
3113 21709
3114 3115
3114 3115
3114 3116
3114 3138
3114 3138
3114 3116
3116 3139
3116 3117
3116 3117
3116 3139
3117 3139
3117 3139
3117 4417
3117 4417
3138 3140
3138 3139
3138 3139
3138 3140
3141 40746
3141 40746
3142 3143
3142 25441
3142 3143
3142 25441
3143 3144
3143 3144
3143 25440
3143 35940
3143 25440
3143 35940
3144 3145
3144 3145
3145 3146
3145 3146
3147 3148
3147 3149
3147 25807
3147 3148
3147 3149
3147 25807
3148 3149
3148 27457
3148 3149
3148 27457
3149 25809
3149 25809
3150 3165
3150 3165
3150 3256
3150 3256
3151 3152
3151 3155
3151 4054
3151 3152
3151 3155
3151 4054
3152 3153
3152 21524
3152 3153
3152 21524
3153 3154
3153 4051
3153 3154
3153 4051
3154 3155
3154 4054
3154 3155
3154 4054
3157 3158
3157 3159
3157 27510
3157 3158
3157 3159
3157 27510
3158 3164
3158 27620
3158 3164
3158 27620
3159 3160
3159 36948
3159 3160
3159 36948
3160 3161
3160 38423
3160 3161
3160 38423
3161 3162
3161 3162
3162 3163
3162 3163
3163 3164
3163 3164
3163 27421
3163 27421
3164 27621
3164 27621
3165 3256
3165 3257
3165 3256
3165 3257
3166 3167
3166 3167
3166 3168
3166 3213
3166 3168
3166 3213
3167 3182
3167 3182
3168 3169
3168 3189
3168 3169
3168 3189
3169 3170
3169 3183
3169 3170
3169 3183
3170 3171
3170 3174
3170 3171
3170 3174
3171 3172
3171 3173
3171 3172
3171 3173
3173 3174
3173 3174
3174 3175
3174 3175
3175 3176
3175 3177
3175 3176
3175 3177
3177 3178
3177 3188
3177 3178
3177 3188
3178 3179
3178 3179
3179 3210
3179 3180
3179 3210
3179 3180
3180 3181
3180 3205
3180 3181
3180 3205
3181 3182
3181 3182
3181 3206
3181 3206
3182 3212
3182 3212
3183 3184
3183 3191
3183 3184
3183 3191
3184 3185
3184 3195
3184 3185
3184 3195
3185 3186
3185 3186
3186 3187
3186 3187
3187 3188
3187 3188
3187 35960
3187 35960
3188 35959
3188 35959
3189 3190
3189 3196
3189 3190
3189 3196
3190 3191
3190 3195
3190 3191
3190 3195
3192 3193
3192 3193
3192 3196
3192 3227
3192 3196
3192 3227
3193 3227
3193 3227
3194 3195
3194 3209
3194 3195
3194 3209
3196 3213
3196 3213
3197 3198
3197 3203
3197 3251
3197 3198
3197 3203
3197 3251
3198 3199
3198 3204
3198 3249
3198 3199
3198 3204
3198 3249
3199 3200
3199 3204
3199 3219
3199 3204
3199 3200
3199 3219
3200 3201
3200 3201
3201 3202
3201 3226
3201 3202
3201 3226
3202 3203
3202 3203
3202 40937
3202 40937
3203 14738
3203 14738
3204 3253
3204 3253
3204 35949
3204 35949
3205 3206
3205 3211
3205 3206
3205 3211
3206 3212
3206 3212
3207 40735
3207 3208
3207 40735
3207 3208
3208 3209
3208 3209
3208 35671
3208 35671
3209 35958
3209 35958
3210 3211
3210 3211
3211 9646
3211 9646
3214 3215
3214 3215
3214 3218
3214 21847
3214 3218
3214 21847
3216 3217
3216 3298
3216 3217
3216 3298
3217 3218
3217 3218
3217 3448
3217 3448
3218 21849
3218 21849
3219 3220
3219 3221
3219 3229
3219 3220
3219 3221
3219 3229
3221 3222
3221 3229
3221 3229
3221 3222
3222 3223
3222 3224
3222 3223
3222 3224
3224 3225
3224 3232
3224 3225
3224 3232
3225 3226
3225 3226
3225 35953
3225 35954
3225 35953
3225 35954
3226 35954
3226 40932
3226 35954
3226 40932
3227 3228
3227 3228
3227 9643
3227 9643
3228 37729
3228 37729
3229 3230
3229 3230
3230 3231
3230 35945
3230 3231
3230 35945
3231 3232
3231 3232
3244 3245
3244 9652
3244 3245
3244 9652
3245 9653
3245 9653
3246 3252
3246 3257
3246 3257
3246 3252
3247 3248
3247 3249
3247 3249
3247 3248
3249 3250
3249 3250
3251 3252
3251 14737
3251 3252
3251 14737
3252 14735
3252 14735
3253 3255
3253 3255
3253 35950
3253 35950
3254 3255
3254 36971
3254 3255
3254 36971
3255 35943
3255 35943
3256 3257
3256 3260
3256 3257
3256 3260
3257 3258
3257 3258
3258 40745
3258 3259
3258 3259
3258 40745
3259 3260
3259 3260
3261 3262
3261 20839
3261 3262
3261 20839
3262 3264
3262 5811
3262 3264
3262 5811
3263 7163
3263 3264
3263 7163
3263 21184
3263 3264
3263 21184
3264 5810
3264 21184
3264 21184
3264 5810
3265 3266
3265 3266
3265 3268
3265 21895
3265 22095
3265 3268
3265 21895
3265 22095
3266 3267
3266 3267
3267 3268
3267 3268
3267 3972
3267 40593
3267 3972
3267 40593
3268 21893
3268 42870
3268 21893
3268 42870
3269 3270
3269 3270
3298 3448
3298 3448
3332 3333
3332 3333
3333 3334
3333 31508
3333 3334
3333 31508
3334 3335
3334 31692
3334 3335
3334 31692
3335 3336
3335 3336
3335 31673
3335 31673
3443 3444
3443 3447
3443 27554
3443 3444
3443 3447
3443 27554
3444 3445
3444 27557
3444 40643
3444 3445
3444 27557
3444 40643
3445 3446
3445 25814
3445 27585
3445 3446
3445 25814
3445 27585
3446 3447
3446 3447
3446 25823
3446 25823
3447 27546
3447 27546
3448 3449
3448 3449
134685 134686
134685 139859
134685 134686
134685 139859
134686 139862
134686 139862
3766 3767
3766 3768
3766 33095
3766 3767
3766 3768
3766 33095
3767 3768
3767 33097
3767 3768
3767 33097
3768 33124
3768 33124
3875 3879
3875 4354
3875 3879
3875 4354
3876 25212
3876 3877
3876 25212
3876 3877
3877 3878
3877 25211
3877 25245
3877 3878
3877 25211
3877 25245
3878 3879
3878 3879
3878 25245
3878 25245
3879 25497
3879 25497
3969 3973
3969 3970
3969 3973
3969 3989
3969 3970
3969 3989
3970 3971
3970 22089
3970 3971
3970 22089
3971 3972
3971 3972
3971 22089
3971 22090
3971 22089
3971 22090
3972 21915
3972 22094
3972 22094
3972 21915
3973 20875
3973 20875
3987 3989
3987 3988
3987 3989
3987 20878
3987 3988
3987 20878
3988 3989
3988 3989
3988 41866
3988 41868
3988 41868
3988 41866
3989 22089
3989 22089
4051 4052
4051 21849
4051 21874
4051 21849
4051 4052
4051 21874
4087 4088
4087 4092
4087 33333
4087 4088
4087 4092
4087 33333
4088 4089
4088 33332
4088 4089
4088 33332
4089 4090
4089 33349
4089 33351
4089 33453
4089 33457
4089 4090
4089 33349
4089 33351
4089 33453
4089 33457
4090 4091
4090 33612
4090 40852
4090 43225
4090 4091
4090 33612
4090 40852
4090 43225
4091 4092
4091 4092
4091 33441
4091 33441
4092 33443
4092 33443
4121 4122
4121 4123
4121 20774
4121 4122
4121 4123
4121 20774
4122 4124
4122 20359
4122 4124
4122 20359
4123 4124
4123 20774
4123 20775
4123 20774
4123 4124
4123 20775
4124 20391
4124 20391
4282 4283
4282 4284
4282 41321
4282 4283
4282 4284
4282 41321
4283 4284
4283 4284
4284 41322
4284 41322
4299 41321
4299 4300
4299 41321
4299 4300
4300 41320
4300 41320
4344 4345
4344 4346
4344 4679
4344 4345
4344 4346
4344 4679
4345 4355
4345 4671
4345 4355
4345 4671
4346 4347
4346 4678
4346 4347
4346 4678
4352 4353
4352 4353
4354 4355
4354 42463
4354 4355
4354 42463
4355 4749
4355 4749
4390 41320
4390 4391
4390 41320
4390 4391
4391 5026
4391 5026
4392 4393
4392 42977
4392 4393
4392 42977
4393 4394
4393 42980
4393 4394
4393 42980
4394 4395
4394 12937
4394 4395
4394 12937
4395 4396
4395 12951
4395 4396
4395 12951
4396 4397
4396 12950
4396 4397
4396 12950
4397 4398
4397 12950
4397 12950
4397 4398
4398 4399
4398 12941
4398 4399
4398 12941
4399 4400
4399 4402
4399 4400
4399 4402
4400 4401
4400 4402
4400 4402
4400 4401
4402 4403
4402 4403
4405 4406
4405 4407
4405 4406
4405 4407
4407 4408
4407 36028
4407 4408
4407 36028
4408 4409
4408 4409
4409 4410
4409 41696
4409 4410
4409 41696
4410 4411
4410 146624
4410 4411
4410 146624
4411 4412
4411 4413
4411 146624
4411 146624
4411 4412
4411 4413
4412 4413
4412 4413
4413 4414
4413 109071
4413 4414
4413 109071
4414 41890
4414 4415
4414 4415
4414 41890
4414 109075
4414 109075
4415 4416
4415 4416
4417 4418
4417 4419
4417 4418
4417 4419
4420 4421
4420 4421
4421 4422
4421 4422
4422 4423
4422 4423
4423 4424
4423 40751
4423 4424
4423 40751
4424 42197
4424 42197
135591 135592
135591 135615
135591 136590
135591 135592
135591 135615
135591 136590
135592 141389
135592 135625
135592 141389
135592 135625
135615 135625
135615 136746
135615 135625
135615 136746
135625 136705
135625 136705
4671 4672
4671 4753
4671 4672
4671 4753
4672 4673
4672 4752
4672 4673
4672 4752
4749 42473
4749 4750
4749 42473
4749 4750
4750 4751
4750 43504
4750 4751
4750 43504
4751 4752
4751 4752
4751 43503
4751 43503
5026 5027
5026 5027
5027 41319
5027 41319
5207 5208
5207 20773
5207 20804
5207 5208
5207 20804
5207 20773
5208 5651
5208 5651
5283 5284
5283 5284
5284 41441
5284 41441
5295 21886
5295 21886
5296 5297
5296 5299
5296 33728
5296 41678
5296 5297
5296 5299
5296 41678
5296 33728
5297 5298
5297 33727
5297 41678
5297 41678
5297 5298
5297 33727
5298 5299
5298 5299
5298 31978
5298 33726
5298 33726
5298 31978
5299 31977
5299 41673
5299 41673
5299 31977
5304 5311
5304 5311
5305 5306
5305 5607
5305 5622
5305 5306
5305 5607
5305 5622
5306 5307
5306 21909
5306 5307
5306 21909
5307 5308
5307 21908
5307 5308
5307 21908
5308 5309
5308 21940
5308 5309
5308 21940
5309 5310
5309 16856
5309 5310
5309 16856
5310 5311
5310 5311
5312 5314
5312 5313
5312 5314
5312 20638
5312 5313
5312 20638
5313 5315
5313 5315
5313 20599
5313 25205
5313 36071
5313 36077
5313 20599
5313 25205
5313 36071
5313 36077
5314 42134
5314 42134
5315 20576
5315 20576
136590 141389
136590 137497
136590 139738
136590 141389
136590 137497
136590 139738
5606 5607
5606 21890
5606 21890
5606 5607
5607 21897
5607 21897
5622 5623
5622 5624
5622 5641
5622 5642
5622 5623
5622 5624
5622 5641
5622 5642
5623 5626
5623 21919
5623 21922
5623 5626
5623 21919
5623 21922
5624 21893
5624 5625
5624 21893
5624 21896
5624 5625
5624 21896
5625 5626
5625 5626
5625 21903
5625 21903
5626 21923
5626 21923
5631 5632
5631 5635
5631 33114
5631 33120
5631 5632
5631 5635
5631 33114
5631 33120
5632 5633
5632 33116
5632 5633
5632 33116
5633 5634
5633 33429
5633 41069
5633 5634
5633 33429
5633 41069
5634 5635
5634 5635
5634 35195
5634 35195
5635 33122
5635 33122
136705 136746
136705 136746
136705 136803
136705 136803
5641 21909
5641 5642
5641 21909
5641 5642
5642 21909
5642 21909
5651 5652
5651 5652
5652 20804
5652 20804
5652 40900
5652 41936
5652 40900
5652 41936
136725 136726
136725 136726
136726 136728
136726 136728
136726 136729
136726 136729
136728 145267
136728 145267
136729 136730
136729 136730
136730 145283
136730 145286
136730 145292
136730 145283
136730 145286
136730 145292
136737 136850
136737 142732
136737 136850
136737 142732
136746 136824
136746 136824
136752 136783
136752 136783
136782 136783
136782 136783
136783 136891
136783 136891
136783 139685
136783 139685
136803 136824
136803 137088
136803 136824
136803 137088
136824 137576
136824 137576
136825 136826
136825 142573
136825 142730
136825 146705
136825 136826
136825 142573
136825 142730
136825 146705
136850 142730
136850 142733
136850 146366
136850 142730
136850 142733
136850 146366
136851 136864
136851 136864
136862 136864
136862 136864
136862 136866
136862 136866
136864 140794
136864 140794
136866 137971
136866 137971
136867 136868
136867 136869
136867 136868
136867 136869
136868 146704
136868 146704
136869 136870
136869 136871
136869 136870
136869 136871
136871 136872
136871 136873
136871 136872
136871 136873
136873 136874
136873 136888
136873 136874
136873 136888
136874 139588
136874 140440
136874 139588
136874 140440
5810 5811
5810 5811
5810 21183
5810 21196
5810 21183
5810 21196
5811 20839
5811 20839
5811 21196
5811 21196
136884 136887
136884 136887
136885 136886
136885 136887
136885 144406
136885 136887
136885 136886
136885 144406
136886 136902
136886 144407
136886 136902
136886 144407
136887 140283
136887 140283
136888 140284
136888 140284
136883 137971
136883 136884
136883 136885
136883 137971
136883 136884
136883 136885
136891 136892
136891 136892
136892 139685
136892 139685
136892 139707
136892 139708
136892 139707
136892 139708
136893 136894
136893 136895
136893 139713
136893 136894
136893 136895
136893 139713
136896 144972
136896 144972
136897 139713
136897 136898
136897 136899
136897 139713
136897 139714
136897 136898
136897 136899
136897 139714
136898 136900
136898 136904
136898 136900
136898 136904
136899 136902
136899 136900
136899 136902
136899 136903
136899 136900
136899 136903
136900 136901
136900 136901
136901 136907
136901 136908
136901 136907
136901 136908
136902 136905
136902 136905
136903 136907
136903 136909
136903 136907
136903 136909
136904 138719
136904 139718
136904 138719
136904 139718
136905 136906
136905 136909
136905 136909
136905 136906
136906 136911
136906 136912
136906 136911
136906 136912
136909 136910
136909 136910
136910 136912
136910 136912
136910 136914
136910 136914
136911 136913
136911 136914
136911 136914
136911 136913
136913 137639
136913 136915
136913 137639
136913 136915
136914 136915
136914 139719
136914 136915
136914 139719
136915 137640
136915 137641
136915 137640
136915 137641
136962 136963
136962 142983
136962 142983
136962 136963
136963 136964
136963 147397
136963 147541
136963 136964
136963 147397
136963 147541
136964 136965
136964 136966
136964 136965
136964 136966
136965 142119
136965 142988
136965 144855
136965 142988
136965 144855
136965 142119
136966 139998
136966 139998
137088 137576
137088 138649
137088 137576
137088 138649
137162 137169
137162 137169
137169 140001
137169 140001
137286 137300
137286 137300
137295 137303
137295 137303
137298 137303
137298 137303
137300 137301
137300 137431
137300 137301
137300 137431
137301 137303
137301 137303
137301 137432
137301 137432
137394 137437
137394 137437
137432 137434
137432 137436
137432 137434
137432 137436
137434 140002
137434 137436
137434 139999
137434 140002
137434 137436
137434 139999
137435 139998
137435 140002
137435 140002
137435 139998
137436 137438
137436 137442
137436 137443
137436 137438
137436 137442
137436 137443
137437 137438
137437 137440
137437 137438
137437 137440
137438 137439
137438 137439
137442 137449
137442 137450
137442 137450
137442 137449
137447 137449
137447 137449
137449 141647
137449 141647
137450 137462
137450 137478
137450 137462
137450 137478
137486 142980
137486 137487
137486 137496
137486 142980
137486 142981
137486 137487
137486 137496
137486 142981
137487 137496
137487 139996
137487 142981
137487 137496
137487 142981
137487 139996
137488 137490
137488 139996
137488 137489
137488 137490
137488 137492
137488 139996
137488 137489
137488 137492
137489 137491
137489 137491
137489 139997
137489 139997
137490 137493
137490 137493
137491 137493
137491 140536
137491 137493
137491 140536
137492 137637
137492 145663
137492 137637
137492 145663
137493 138650
137493 138650
137496 145204
137496 145204
137497 142585
137497 137498
137497 137499
137497 142585
137497 137498
137497 137499
137498 141386
137498 141662
137498 141386
137498 141662
137499 139738
137499 137500
137499 139738
137499 137500
137500 137505
137500 137504
137500 137505
137500 137504
137502 137647
137502 137504
137502 137503
137502 137504
137502 137647
137502 143641
137502 137503
137502 143641
137503 143028
137503 144113
137503 144961
137503 143028
137503 144113
137503 144961
137504 143641
137504 144113
137504 143641
137504 144113
137505 143191
137505 143191
137576 137577
137576 138649
137576 138649
137576 137577
137637 139588
137637 139588
137639 137640
137639 137640
137640 139726
137640 139726
137641 139726
137641 143633
137641 139726
137641 143633
137646 143024
137646 143024
6826 6827
6826 32951
6826 6827
6826 32951
6827 32949
6827 34695
6827 32949
6827 34695
137971 140694
137971 140694
138148 138149
138148 143562
138148 145882
138148 138149
138148 143562
138148 145882
138155 138156
138155 139740
138155 138156
138155 139740
7123 7124
7123 7125
7123 7492
7123 7124
7123 7125
7123 7492
7124 7126
7124 39723
7124 7126
7124 39723
7125 7126
7125 7493
7125 7126
7125 7493
7126 33646
7126 33646
7134 7135
7134 7136
7134 8178
7134 13690
7134 7135
7134 7136
7134 8178
7134 13690
7135 7140
7135 7172
7135 7140
7135 7172
7136 7137
7136 8180
7136 7137
7136 8180
7137 7138
7137 13728
7137 21977
7137 22178
7137 7138
7137 13728
7137 22178
7137 21977
7138 7139
7138 7139
7139 7140
7139 7140
7139 22171
7139 22229
7139 22229
7139 22171
7140 7174
7140 7445
7140 7174
7140 7445
7162 7163
7162 7184
7162 7186
7162 7163
7162 7186
7162 7184
7163 7186
7163 7186
7172 7173
7172 13718
7172 7173
7172 13718
7173 7174
7173 7174
7173 7444
7173 7444
7174 7175
7174 7175
7184 42094
7184 7185
7184 42094
7184 7185
7185 7186
7185 7186
7185 38925
7185 38925
7186 42861
7186 42861
138493 139689
138493 139690
138493 139689
138493 139690
138495 138496
138495 138736
138495 138496
138495 138736
138496 145585
138496 145585
138496 145587
138496 145587
138502 138505
138502 138505
138505 138738
138505 139693
138505 139695
138505 139693
138505 139695
138505 138738
138507 138739
138507 138739
138510 138741
138510 138741
7444 7448
7444 8364
7444 7448
7444 8364
7445 7446
7445 41453
7445 7446
7445 41453
7446 7447
7446 41452
7446 7447
7446 41452
7447 7448
7447 7448
7447 41450
7447 41450
7448 41445
7448 41445
7476 7477
7476 7478
7476 40821
7476 7477
7476 7478
7476 40821
7477 7485
7477 7499
7477 39754
7477 7485
7477 39754
7477 7499
7478 8364
7478 7479
7478 8364
7478 12216
7478 13720
7478 29907
7478 7479
7478 13720
7478 12216
7478 29907
7479 7480
7479 7481
7479 7480
7479 7481
7481 8364
7481 7482
7481 8364
7481 7482
7482 7483
7482 7484
7482 41457
7482 7483
7482 7484
7482 41457
7484 41445
7484 7485
7484 7485
7484 7487
7484 41445
7484 7487
7485 7486
7485 7499
7485 7499
7485 7486
7486 7499
7486 7487
7486 7487
7486 7499
7486 39756
7486 39756
7487 39742
7487 41447
7487 39742
7487 41447
7492 7493
7492 22100
7492 7493
7492 22100
7493 22102
7493 22102
7494 39742
7494 7495
7494 39742
7494 7495
7495 39755
7495 39755
7499 39756
7499 39756
138649 138650
138649 139810
138649 141228
138649 138650
138649 139810
138649 141228
138650 139738
138650 139738
138709 138710
138709 139861
138709 139867
138709 146901
138709 138710
138709 139861
138709 139867
138709 146901
138713 139866
138713 144059
138713 147464
138713 139866
138713 144059
138713 147464
138722 138723
138722 138723
138723 138724
138723 138725
138723 138734
138723 138724
138723 138725
138723 138734
138725 138734
138725 138768
138725 138772
138725 138734
138725 138768
138725 138772
138734 138736
138734 138736
138736 138779
138736 139213
138736 138779
138736 139213
138738 138739
138738 139696
138738 138739
138738 139696
138739 141308
138739 141308
138740 138741
138740 138741
138740 138742
138740 138745
138740 138742
138740 138745
138741 138747
138741 141308
138741 141308
138741 138747
138743 138745
138743 138744
138743 138745
138743 138748
138743 138744
138743 138748
138745 138746
138745 138746
138746 138750
138746 138751
138746 138751
138746 138750
138747 138757
138747 140292
138747 140292
138747 138757
7676 7677
7676 24394
7676 7677
7676 24394
7677 24398
7677 39540
7677 24398
7677 39540
138750 138752
138750 138752
138751 138779
138751 138779
138751 139737
138751 139737
138752 138754
138752 138753
138752 138754
138752 138753
138748 138749
138748 138750
138748 138750
138748 138749
138754 138757
138754 138755
138754 138757
138754 138755
138755 138758
138755 138759
138755 138758
138755 138759
138749 138750
138749 138750
138749 138754
138749 138754
138759 140292
138759 140292
138753 138755
138753 138755
138778 139206
138778 139206
138779 139737
138779 140292
138779 140292
138779 139737
139206 139213
139206 139223
139206 139213
139206 139223
139210 139220
139210 142637
139210 139220
139210 142637
139211 139213
139211 139212
139211 139213
139211 139216
139211 139217
139211 139212
139211 139216
139211 139217
139212 139214
139212 139215
139212 139214
139212 139215
139216 139218
139216 139221
139216 139221
139216 139218
139217 139218
139217 139219
139217 139218
139217 139219
139218 139219
139218 139219
139219 139220
139219 139220
139220 139221
139220 142637
139220 142637
139220 139221
139221 139290
139221 139290
139225 139226
139225 139227
139225 143549
139225 139226
139225 139227
139225 143549
139226 143550
139226 145877
139226 145877
139226 143550
139227 139228
139227 139228
139227 141487
139227 141487
139228 143533
139228 141290
139228 143533
139228 141290
139237 139238
139237 147824
139237 147824
139237 139238
139238 139286
139238 139286
139238 140295
139238 140295
139239 139240
139239 139911
139239 139240
139239 139911
139240 143559
139240 145881
139240 145881
139240 143559
139249 139250
139249 139250
139249 139544
139249 141327
139249 141327
139249 139544
8178 8179
8178 13689
8178 8179
8178 13689
8179 8180
8179 8180
8179 13689
8179 13689
8180 8181
8180 8181
139250 139544
139250 141480
139250 139544
139250 141480
139271 139272
139271 139272
139272 139273
139272 139281
139272 139273
139272 139281
139283 145850
139283 145850
139287 139288
139287 139623
139287 139623
139287 139288
139288 139292
139288 139292
139288 139293
139288 139626
139288 139293
139288 139626
139290 139292
139290 139292
139290 139293
139290 139293
139291 139293
139291 139293
139293 139294
139293 139294
139294 139295
139294 139638
139294 139295
139294 139638
139295 139821
139295 139640
139295 139821
139295 139640
139460 139462
139460 139462
139461 139462
139461 139462
139462 139590
139462 139590
139490 139627
139490 139627
139518 139649
139518 139655
139518 139655
139518 139649
139538 139544
139538 139545
139538 139544
139538 139545
139544 139547
139544 139547
139545 139551
139545 139547
139545 139551
139545 139556
139545 139547
139545 139556
139547 139554
139547 139555
139547 139554
139547 139555
139548 139552
139548 139552
139550 139589
139550 139551
139550 139589
139550 139551
139551 139591
139551 139591
139552 139554
139552 139554
139552 144888
139552 144888
139553 139554
139553 139576
139553 139554
139553 139576
139553 139577
139553 139577
139555 139556
139555 139556
139555 139603
139555 139603
139556 139591
139556 139591
139556 139602
139556 139602
139566 139567
139566 139568
139566 139567
139566 139568
139567 141491
139567 141491
139568 139571
139568 139573
139568 139573
139568 139571
139569 139582
139569 139605
139569 139582
139569 139605
139571 139574
139571 139574
139573 139579
139573 139580
139573 139579
139573 139580
139574 139575
139574 139575
139575 139580
139575 139580
139575 139586
139575 139586
139580 139581
139580 139581
139581 139609
139581 139609
139582 139606
139582 139608
139582 139608
139582 139606
139583 139594
139583 139593
139583 139594
139583 139597
139583 139593
139583 139597
139587 144778
139587 144778
139588 142573
139588 142573
139588 145663
139588 145663
139590 139599
139590 139599
139590 139600
139590 139627
139590 139627
139590 139600
139591 139592
139591 139592
139592 139607
139592 139607
139599 139601
139599 139601
139600 139601
139600 139601
139600 139630
139600 139647
139600 139630
139600 139647
139602 139624
139602 139609
139602 139619
139602 139624
139602 139609
139602 139619
139603 139604
139603 139605
139603 139605
139603 139604
139604 141491
139604 141491
139605 139606
139605 139606
139606 139609
139606 139609
139609 139621
139609 139621
139612 139614
139612 139614
139614 139615
139614 139615
139615 139629
139615 139629
139616 139617
139616 139617
139616 139618
139616 139618
139617 139619
139617 139619
139619 139630
139619 139630
139619 139631
139619 139631
139620 139621
139620 141483
139620 139621
139620 141483
139623 139625
139623 139626
139623 139626
139623 139625
139624 139632
139624 139633
139624 139632
139624 139633
139626 139637
139626 139656
139626 139637
139626 139656
139627 144526
139627 145099
139627 144526
139627 145099
139630 139650
139630 139650
139631 143578
139631 143581
139631 143578
139631 143581
139632 139635
139632 139636
139632 143578
139632 143578
139632 139636
139632 139635
139633 139636
139633 139656
139633 139657
139633 139656
139633 139636
139633 139657
139634 139635
139634 139635
139634 139651
139634 139652
139634 145598
139634 139651
139634 139652
139634 145598
139635 142654
139635 142654
139636 139652
139636 143980
139636 139652
139636 143980
139637 139638
139637 139638
139637 139639
139637 139659
139637 139639
139637 139659
139638 144032
139638 144032
139639 139640
139639 139640
139639 144033
139639 144033
139640 139641
139640 139661
139640 139641
139640 139661
139641 140888
139641 147189
139641 147190
139641 140888
139641 147189
139641 147190
139642 140888
139642 139643
139642 139825
139642 140888
139642 139643
139642 139825
139643 140888
139643 139644
139643 139645
139643 140888
139643 139644
139643 139645
139644 139645
139644 139646
139644 139645
139644 139646
139645 140924
139645 140915
139645 140924
139645 140915
139646 139660
139646 144958
139646 144958
139646 139660
139647 144526
139647 144527
139647 144526
139647 144527
139648 139649
139648 139649
139648 139853
139648 142656
139648 142658
139648 139853
139648 142658
139648 142656
139649 146583
139649 146583
139650 142657
139650 146591
139650 142657
139650 146591
139651 142653
139651 142656
139651 142656
139651 142653
139652 143585
139652 143585
139653 139857
139653 139855
139653 139654
139653 139855
139653 139857
139653 139654
139654 145595
139654 145595
139655 139853
139655 139853
139656 139658
139656 139658
139657 139861
139657 139662
139657 139664
139657 139861
139657 139662
139657 139664
139658 139660
139658 139660
139658 144041
139658 144041
139659 144035
139659 144036
139659 144035
139659 144036
139660 139661
139660 139661
139660 139662
139660 139662
139661 144034
139661 144034
139662 139663
139662 139663
139663 144066
139663 144067
139663 144066
139663 144067
139664 139867
139664 139834
139664 139867
139664 139878
139664 139834
139664 139878
139673 139674
139673 139674
139673 139675
139673 139675
139674 139676
139674 139676
139675 139685
139675 139676
139675 139685
139675 139676
139676 139686
139676 139686
139685 139688
139685 139688
139686 139687
139686 139688
139686 139688
139686 139687
139687 139688
139687 139688
139687 145623
139687 145627
139687 145623
139687 145627
139688 145626
139688 145626
139689 139690
139689 140299
139689 145625
139689 139690
139689 140299
139689 145625
139690 145587
139690 145587
139693 140299
139693 140299
139695 139697
139695 139698
139695 139697
139695 139698
139696 139698
139696 140300
139696 139698
139696 140300
139697 139699
139697 139699
139699 140300
139699 139730
139699 139731
139699 140300
139699 139730
139699 139731
139700 139701
139700 139702
139700 145628
139700 145629
139700 139701
139700 139702
139700 145628
139700 145629
139701 139702
139701 139702
139702 139705
139702 139705
139703 139705
139703 139704
139703 139705
139703 145624
139703 139704
139703 145624
139704 139745
139704 139746
139704 139746
139704 139745
139705 145623
139705 139706
139705 145623
139705 139706
139707 139708
139707 139710
139707 139708
139707 139710
139708 139711
139708 139711
139710 139714
139710 139712
139710 139714
139710 139712
139711 139713
139711 139712
139711 139713
139711 139712
139713 139714
139713 139714
139714 139715
139714 139715
139715 139716
139715 139717
139715 139716
139715 139717
139719 139720
139719 139721
139719 139720
139719 139721
139721 139722
139721 139723
139721 139722
139721 139723
139722 144100
139722 144101
139722 144100
139722 144101
139723 141322
139723 141323
139723 141322
139723 141323
139724 139725
139724 139744
139724 144102
139724 139725
139724 139744
139724 144102
139725 139728
139725 139728
139726 139727
139726 139761
139726 139764
139726 139727
139726 139761
139726 139764
139727 141322
139727 139728
139727 139728
139727 139762
139727 141322
139727 139762
139728 139744
139728 139729
139728 139744
139728 139729
139729 139762
139729 139762
139729 139765
139729 139765
139730 140300
139730 139731
139730 139732
139730 140300
139730 139731
139730 139732
139731 139733
139731 145628
139731 145628
139731 139733
139732 139733
139732 145630
139732 139733
139732 145630
139733 145629
139733 145629
139737 139739
139737 139740
139737 139739
139737 139740
139739 139740
139739 139820
139739 139740
139739 139820
139741 139820
139741 139742
139741 139743
139741 139820
139741 139742
139741 139743
139742 139743
139742 145631
139742 139743
139742 145631
139743 145636
139743 145632
139743 145632
139743 145636
139744 139745
139744 139745
139746 139747
139746 139755
139746 139747
139746 139755
139747 139750
139747 139751
139747 139750
139747 139751
139748 139749
139748 139749
139749 139755
139749 139754
139749 139755
139749 139754
139750 139753
139750 139752
139750 139753
139750 139756
139750 139752
139750 139756
139751 141333
139751 141333
139753 139757
139753 139757
139754 139755
139754 139755
139758 139759
139758 139759
139759 139760
139759 139817
139759 139760
139759 139817
139761 139762
139761 139763
139761 139762
139761 139763
139762 139763
139762 139763
139763 139770
139763 139768
139763 139770
139763 139768
139765 139767
139765 139766
139765 139766
139765 139767
139765 143635
139765 143635
139766 139768
139766 139768
139767 139775
139767 139775
139768 139773
139768 139773
139769 139770
139769 139771
139769 139770
139769 139771
139769 139772
139769 139774
139769 139772
139769 139774
139770 139771
139770 139771
139772 139774
139772 139774
139773 139774
139773 139774
139775 139776
139775 139777
139775 139776
139775 139777
139777 139778
139777 139779
139777 139778
139777 139779
139780 139781
139780 139782
139780 139783
139780 139781
139780 139782
139780 139783
139783 139807
139783 139812
139783 139807
139783 139812
139784 139819
139784 139785
139784 139819
139784 139785
139785 139818
139785 139803
139785 139818
139785 139803
139794 139795
139794 139795
139795 139799
139795 139796
139795 139797
139795 139799
139795 139796
139795 139797
139797 139800
139797 139805
139797 139806
139797 139800
139797 139805
139797 139806
139800 139817
139800 139817
139801 140536
139801 139810
139801 139802
139801 139810
139801 140536
139801 139802
139803 139812
139803 139804
139803 139812
139803 139804
139806 139807
139806 139807
139806 139808
139806 139808
139807 139817
139807 139809
139807 139817
139807 139809
139808 139809
139808 139809
139809 139814
139809 139814
139810 139811
139810 141228
139810 141228
139810 139811
139812 139813
139812 139813
139813 139815
139813 139816
139813 139814
139813 139814
139813 139815
139813 139816
139815 139816
139815 139816
139816 143634
139816 143634
139818 139819
139818 139819
139821 139822
139821 139822
139822 139823
139822 139823
139823 139824
139823 139826
139823 139824
139823 139826
139824 139825
139824 139825
139824 139826
139824 139826
139825 140915
139825 140915
139826 139829
139826 139828
139826 139828
139826 139829
139827 139828
139827 140915
139827 139828
139827 140915
139828 139829
139828 139829
139830 144066
139830 139834
139830 139831
139830 139834
139830 140925
139830 144066
139830 139831
139830 140925
139831 139835
139831 144054
139831 139835
139831 144054
139832 139833
139832 139835
139832 139833
139832 139835
139833 144115
139833 144115
139834 139835
139834 139835
139835 139836
139835 139836
139836 139878
139836 144115
139836 139878
139836 144115
139853 143983
139853 143983
139855 139857
139855 139857
139855 139858
139855 139858
139856 139857
139856 139857
139858 139876
139858 139862
139858 139862
139858 139863
139858 139876
139858 139863
139859 139860
139859 139861
139859 139861
139859 139860
139860 143980
139860 143980
139860 143982
139860 143982
139861 139866
139861 139866
139862 139863
139862 139863
139863 139864
139863 139864
139864 139876
139864 139865
139864 139876
139864 139865
139865 144062
139865 144064
139865 144062
139865 144064
139866 139868
139866 144062
139866 144062
139866 139868
139867 139879
139867 139879
139868 139869
139868 144071
139868 139869
139868 144071
139869 139870
139869 139871
139869 139870
139869 139871
139870 139871
139870 139872
139870 139871
139870 139872
139871 139875
139871 139875
139872 139873
139872 139874
139872 139875
139872 139875
139872 139873
139872 139874
139873 146901
139873 146901
139873 146902
139873 146902
139874 144069
139874 144070
139874 144069
139874 144070
139875 139877
139875 139877
139877 144053
139877 144060
139877 144053
139877 144060
139878 139880
139878 139880
139878 139881
139878 139881
139879 139881
139879 146906
139879 139881
139879 146906
139880 144120
139880 144120
139881 139882
139881 139882
139882 139883
139882 139883
139882 144116
139882 144116
139883 139884
139883 139884
139884 144109
139884 144109
139907 141285
139907 141285
139911 139912
139911 139912
139912 143557
139912 140293
139912 143557
139912 140293
139915 141357
139915 145873
139915 141357
139915 145873
139939 140794
139939 140795
139939 140794
139939 140795
139962 144527
139962 144527
139980 139984
139980 139982
139980 139983
139980 139984
139980 139982
139980 139983
139981 144505
139981 1494559
139981 144505
139981 1494559
139982 139983
139982 139983
139983 139986
139983 139986
139985 139986
139985 139986
139996 139997
139996 139997
139997 142982
139997 139998
139997 139998
139997 142982
139998 139999
139998 139999
139999 140002
139999 142119
139999 140002
139999 142119
140003 140004
140003 140004
140032 140033
140032 140033
140033 143520
140033 143531
140033 143531
140033 143520
9017 9018
9017 9019
9017 32431
9017 9018
9017 9019
9017 32431
9018 9023
9018 32432
9018 9023
9018 32432
9019 9020
9019 32430
9019 9020
9019 32430
9020 9021
9020 32429
9020 9021
9020 32429
9021 9023
9021 9022
9021 9023
9021 9022
9023 32433
9023 32433
9167 9168
9167 14750
9167 9168
9167 14750
140283 140284
140283 142870
140283 145663
140283 140284
140283 145663
140283 142870
140284 140285
140284 140285
140285 140440
140285 145663
140285 140440
140285 145663
140293 140294
140293 140294
140294 141490
140294 141490
140295 146735
140295 146735
140295 146737
140295 147582
140295 146737
140295 147582
140300 145630
140300 145630
140304 142731
140304 142731
9298 9299
9298 9302
9298 9299
9298 9302
9299 9300
9299 9300
9300 9301
9300 22637
9300 22638
9300 9301
9300 22637
9300 22638
9301 9302
9301 9302
9301 22640
9301 22640
9302 40771
9302 40771
9303 9304
9303 9305
9303 35635
9303 9304
9303 9305
9303 35635
9304 9306
9304 35591
9304 9306
9304 35591
9305 9306
9305 17804
9305 9306
9305 17804
9306 17802
9306 17802
9358 9359
9358 9359
9358 9496
9358 9496
9359 30863
9359 30863
140536 141228
140536 141228
140559 141490
140559 141490
9496 9957
9496 9957
9496 42807
9496 42807
9643 9644
9643 37730
9643 9644
9643 37730
9644 37729
9644 9654
9644 37729
9644 9654
9646 37189
9646 9647
9646 37189
9646 9647
9647 9650
9647 9648
9647 9650
9647 9648
9648 9649
9648 9649
9650 9651
9650 9651
9651 9652
9651 9652
9653 9654
9653 9654
9654 41654
9654 41654
140736 141031
140736 141031
140794 142876
140794 142876
140884 144411
140884 144411
140915 140924
140915 140924
140924 140925
140924 140925
140925 144958
140925 144958
9950 10123
9950 9952
9950 10123
9950 9952
9951 9952
9951 11466
9951 35534
9951 35534
9951 9952
9951 11466
9952 11465
9952 11465
9957 42833
9957 42833
141031 146737
141031 146737
10097 10098
10097 10138
10097 10098
10097 10138
10097 10160
10097 10160
10099 10100
10099 37364
10099 37364
10099 10100
10122 10123
10122 10123
10138 10158
10138 37125
10138 10158
10138 37125
10158 10292
10158 10159
10158 10159
10158 10292
10158 37121
10158 37121
10159 10293
10159 10160
10159 10293
10159 10160
10160 37159
10160 37159
10164 10168
10164 40747
10164 10165
10164 10168
10164 40747
10164 10165
10165 10270
10165 10166
10165 10166
10165 10270
10166 10167
10166 10167
10168 40746
10168 40746
141239 144778
141239 144778
141284 141285
141284 143538
141284 143539
141284 141285
141284 143538
141284 143539
141285 144178
141285 144178
141289 141290
141289 141290
141289 141295
141289 143540
141289 141295
141289 143540
141290 143548
141290 146505
141290 143548
141290 146505
141293 141294
141293 143527
141293 141294
141293 143527
141293 144923
141293 144923
141295 141926
141295 144179
141295 146504
141295 144179
141295 141926
141295 146504
141322 144102
141322 144103
141322 144102
141322 144103
141323 144962
141323 144962
10269 10270
10269 10270
10292 10293
10292 10293
141386 141387
141386 141704
141386 141387
141386 141704
141387 141662
141387 141662
141389 142585
141389 142585
141486 141488
141486 141488
141487 141490
141487 141490
141491 144808
141491 144808
141662 142585
141662 142585
141757 144855
141757 142175
141757 144855
141757 142175
10723 10724
10723 10725
10723 34356
10723 10724
10723 10725
10723 34356
10724 10732
10724 34358
10724 10732
10724 34358
10725 10726
10725 34584
10725 10726
10725 34584
10726 10727
10726 34588
10726 10727
10726 34588
10727 10728
10727 11007
10727 10728
10727 11007
10728 10729
10728 11005
10728 11006
10728 10729
10728 11005
10728 11006
10729 10730
10729 10730
10730 10731
10730 34617
10730 10731
10730 34617
10731 10732
10731 10732
10731 34355
10731 34355
11005 11010
11005 34570
11005 11010
11005 34570
11007 11008
11007 34634
11007 11008
11007 34634
11008 34588
11008 11009
11008 34588
11008 11009
11009 11010
11009 11010
11009 34554
11009 34554
11010 34572
11010 34572
11045 11046
11045 34487
11045 11046
11045 34487
11046 11048
11046 34022
11046 11048
11046 34022
142118 142119
142118 142175
142118 142119
142118 142120
142118 142175
142118 142120
11048 34023
11048 34023
11049 11050
11049 11079
11049 31849
11049 34262
11049 11050
11049 11079
11049 31849
11049 34262
11050 11051
11050 11052
11050 34262
11050 34262
11050 11051
11050 11052
11052 11053
11052 34263
11052 34303
11052 11053
11052 34263
11052 34303
11053 11054
11053 34304
11053 11054
11053 34304
11054 11055
11054 34304
11054 34304
11054 11055
11055 11056
11055 34172
11055 11056
11055 34172
11056 11057
11056 34172
11056 34172
11056 11057
11057 11058
11057 34173
11057 34174
11057 34306
11057 11058
11057 34173
11057 34174
11057 34306
11058 11059
11058 34170
11058 11059
11058 34170
11059 11060
11059 34171
11059 11060
11059 34171
11060 11061
11060 11066
11060 11061
11060 11066
11061 11062
11061 11063
11061 11062
11061 11063
11063 11064
11063 11065
11063 11064
11063 11065
11066 11067
11066 34114
11066 11067
11066 34114
11067 11068
11067 11072
11067 11068
11067 11072
11068 11069
11068 11070
11068 11071
11068 11069
11068 11070
11068 11071
11072 11073
11072 11074
11072 11073
11072 11074
11074 11075
11074 11076
11074 11075
11074 11076
11076 11077
11076 34116
11076 11077
11076 34116
11077 11078
11077 34116
11077 34117
11077 34116
11077 11078
11077 34117
11078 11079
11078 11079
11078 39776
11078 39776
11079 31840
11079 31840
142175 142176
142175 142176
11465 11466
11465 11466
142571 142572
142571 145206
142571 146760
142571 142572
142571 145206
142571 146760
142572 142573
142572 142573
142572 142574
142572 142574
142573 142574
142573 142574
142574 145204
142574 145206
142574 145204
142574 145206
142575 143641
142575 142581
142575 143641
142575 142581
142581 143641
142581 143641
11513 30313
11513 30313
142637 146737
142637 146737
142653 142654
142653 142654
142653 142659
142653 142659
142654 143578
142654 143578
142656 147642
142656 147642
142657 142658
142657 142658
142657 142659
142657 146596
142657 142659
142657 146596
142658 144810
142658 147636
142658 144810
142658 147636
142659 143581
142659 143581
142730 142731
142730 142733
142730 142733
142730 142731
142731 146716
142731 146716
142732 142733
142732 142733
142733 146716
142733 146716
11769 11770
11769 11770
11770 11772
11770 11776
11770 11772
11770 11776
11772 11777
11772 11777
11776 11777
11776 11852
11776 11777
11776 11852
11777 11853
11777 38904
11777 11853
11777 38904
142869 142870
142869 142870
142869 142875
142869 145661
142869 142875
142869 145661
142870 142876
142870 142876
142875 142876
142875 142876
142875 143606
142875 143606
11852 11853
11852 12060
11852 11853
11852 12060
11853 38901
11853 38903
11853 38901
11853 38903
142980 142981
142980 145267
142980 145284
142980 145267
142980 142981
142980 145284
142981 142982
142981 142982
142983 142984
142983 142984
142984 147397
142984 142989
142984 147397
142984 142989
142988 142989
142988 143439
142988 142989
142988 143439
11986 11987
11986 28921
11986 11987
11986 28921
11987 28991
11987 28991
31739 31788
31739 31788
12060 12061
12060 28589
12060 12061
12060 28589
12061 12062
12061 37407
12061 12062
12061 37407
12062 12063
12062 37403
12062 12063
12062 37403
12063 12064
12063 37400
12063 12064
12063 37400
143188 143191
143188 143189
143188 143191
143188 143193
143188 143189
143188 143193
143191 143192
143191 143192
143192 143213
143192 143223
143192 143213
143192 143223
143193 144113
143193 143195
143193 144113
143193 143195
143208 143598
143208 143209
143208 143210
143208 143598
143208 143209
143208 143210
143210 143213
143210 143211
143210 143213
143210 143211
143213 143214
143213 143214
12212 12213
12212 12214
12212 12420
12212 12213
12212 12214
12212 12420
12213 12216
12213 29907
12213 12216
12213 29832
12213 29907
12213 41459
12213 29832
12213 41459
12214 12215
12214 12420
12214 12422
12214 12420
12214 12215
12214 12422
12215 12216
12215 12216
12216 29907
12216 29907
12420 12421
12420 22159
12420 12421
12420 22159
12421 12422
12421 12422
12421 22160
12421 22847
12421 22160
12421 22847
12422 13717
12422 41460
12422 13717
12422 41460
143502 144923
143502 144923
143527 143534
143527 143534
143528 144923
143528 144923
143538 143540
143538 143541
143538 143540
143538 143541
143539 145875
143539 145875
143540 143542
143540 143542
143548 143549
143548 143550
143548 143549
143548 143550
143551 143558
143551 143559
143551 143559
143551 143558
143558 143560
143558 143561
143558 143560
143558 143561
143560 143562
143560 143562
143561 145881
143561 145881
31757 39281
31757 39281
143581 143582
143581 143582
143598 144961
143598 145198
143598 144961
143598 145198
143605 143606
143605 143606
143606 145661
143606 145661
143625 143626
143625 143643
143625 143647
143625 143626
143625 143643
143625 143647
143626 146480
143626 146481
143626 146480
143626 146481
143643 143645
143643 143650
143643 143645
143643 143650
143645 143646
143645 146954
143645 143646
143645 146954
143647 144072
143647 143649
143647 144072
143647 143649
31766 31778
31766 31834
31766 31778
31766 31834
28594 28595
28594 28595
28595 28596
28595 28596
143980 143981
143980 143981
12937 12939
12937 12938
12937 12939
12937 12938
12939 12940
12939 42980
12939 42980
12939 12940
12941 12942
12941 12945
12941 21928
12941 12942
12941 12945
12941 21928
12942 12943
12942 12944
12942 12943
12942 12944
12945 12946
12945 12947
12945 12948
12945 12946
12945 12947
12945 12948
12948 12950
12948 12949
12948 12950
12948 12949
144035 144037
144035 144038
144035 144037
144035 144038
144037 144039
144037 144040
144037 144039
144037 144040
144039 144041
144039 144041
144039 144043
144039 144043
144041 144042
144041 144042
144053 144110
144053 144110
144053 144111
144053 144111
144060 144061
144060 146477
144060 146480
144060 146480
144060 144061
144060 146477
144061 146942
144061 146945
144061 146946
144061 146942
144061 146945
144061 146946
144062 144063
144062 144063
144066 144068
144066 144068
144068 144958
144068 144958
144069 146904
144069 146905
144069 146904
144069 146905
144072 147773
144072 147773
31777 31787
31777 31787
31778 31850
31778 31850
144102 144104
144102 144104
144103 145624
144103 144962
144103 145624
144103 144962
144104 144105
144104 144106
144104 144105
144104 144106
144106 144107
144106 144108
144106 144107
144106 144108
144109 146889
144109 146890
144109 146889
144109 146890
144110 146476
144110 146476
144113 144961
144113 144961
144116 144128
144116 144129
144116 144128
144116 144129
144117 144118
144117 144119
144117 144122
144117 144118
144117 144119
144117 144122
144118 144120
144118 144120
144118 144121
144118 144121
144122 144123
144122 144125
144122 144123
144122 144125
144124 144128
144124 144125
144124 144125
144124 144126
144124 144128
144124 144126
144125 144126
144125 144126
144126 144127
144126 144127
144128 144130
144128 144130
13205 13206
13205 13207
13205 34037
13205 13206
13205 13207
13205 34037
13206 13207
13206 34211
13206 13207
13206 34211
13207 34103
13207 34103
31789 31790
31789 31790
144406 144407
144406 144408
144406 144972
144406 144407
144406 144972
144406 144408
144407 144412
144407 144412
144408 144418
144408 144419
144408 144418
144408 144419
144411 144412
144411 144413
144411 144412
144411 144413
144412 144413
144412 144413
144413 144414
144413 144414
144419 144421
144419 144421
144421 144972
144421 144972
31793 31794
31793 31818
31793 31794
31793 31818
31794 31795
31794 31796
31794 31795
31794 31796
144505 1478547
144505 1478547
144526 145100
144526 145100
144527 147191
144527 147191
13685 13690
13685 13686
13685 13690
13685 13691
13685 13686
13685 13691
13686 13687
13686 13693
13686 13687
13686 13693
13687 13689
13687 13688
13687 13689
13687 13688
13690 13717
13690 13717
13691 13692
13691 13694
13691 13692
13691 13694
13692 13693
13692 13693
13692 13722
13692 13723
13692 13722
13692 13723
13693 13729
13693 13729
13694 13695
13694 22003
13694 13695
13694 22003
13695 13723
13695 13723
13695 13724
13695 13724
13717 22003
13717 22003
13718 13719
13718 13720
13718 13720
13718 13719
13720 13721
13720 13721
13724 13725
13724 36863
13724 13725
13724 36863
13725 13726
13725 36861
13725 13726
13725 36861
13726 13727
13726 36860
13726 13727
13726 36860
13727 13728
13727 13728
13727 36858
13727 36858
13728 36854
13728 36854
144961 145198
144961 145198
144962 144963
144962 144963
145100 147191
145100 147191
145103 145104
145103 145104
31820 31821
31820 31821
31820 39381
31820 39381
31821 31822
31821 31822
145204 145206
145204 145206
145207 146760
145207 146760
31824 31825
31824 31834
31824 31834
31824 31825
145267 145292
145267 145292
31825 31826
31825 31826
31825 31836
31825 31838
31825 31836
31825 31838
145273 145278
145273 145281
145273 145278
145273 145281
145278 145279
145278 145280
145278 145279
145278 145280
145279 145284
145279 145284
145281 145283
145281 145286
145281 145282
145281 145283
145281 145286
145281 145282
145283 145284
145283 145284
145291 146760
145291 146760
31827 31828
31827 31835
31827 31828
31827 31835
31828 31830
31828 31831
31828 31830
31828 31831
31829 31830
31829 39384
31829 31830
31829 39384
31830 31833
31830 31833
31832 31833
31832 31833
31833 39383
31833 39383
31834 31881
31834 31881
31836 36818
31836 31837
31836 36818
31836 31837
145595 145596
145595 145596
145596 145597
145596 145597
145597 145598
145597 145598
145623 145624
145623 145627
145623 145627
145623 145624
145624 145626
145624 145626
145625 145627
145625 145627
145625 145628
145625 145628
145626 145910
145626 145910
145628 145629
145628 145629
145630 145631
145630 145631
145632 145636
145632 145636
145661 145662
145661 145662
145662 146538
145662 146700
145662 146538
145662 146700
31844 37344
31844 37344
14731 14732
14731 14733
14731 14732
14731 14733
14733 14735
14733 14734
14733 14735
14733 14734
14735 14736
14735 14736
14738 14739
14738 14740
14738 14739
14738 14740
14740 14741
14740 41656
14740 14741
14740 41656
14741 14742
14741 14743
14741 14742
14741 14743
14743 14744
14743 14745
14743 14744
14743 14745
14745 14746
14745 41655
14745 14746
14745 41655
14746 14748
14746 14747
14746 14748
14746 14747
14748 14749
14748 14749
31847 31848
31847 31848
14772 14773
14772 14774
14772 19477
14772 14773
14772 14774
14772 19477
14773 14777
14773 19478
14773 14777
14773 19478
14774 14775
14774 22380
14774 14775
14774 22380
14775 14776
14775 22380
14775 22380
14775 14776
14776 14777
14776 14777
14776 19480
14776 19480
14777 19479
14777 19479
31849 34258
31849 34260
31849 34258
31849 34260
145881 145882
145881 145882
31850 31851
31850 31854
31850 31851
31850 31854
145910 145911
145910 145912
145910 145911
145910 145912
14848 14849
14848 14850
14848 31845
14848 14849
14848 14850
14848 31845
14849 14893
14849 31846
14849 14893
14849 31846
14850 14851
14850 23960
14850 31844
14850 14851
14850 23960
14850 31844
14851 14852
14851 14853
14851 14852
14851 14853
14853 14854
14853 14856
14853 14854
14853 14856
14854 14855
14854 14855
14856 14857
14856 23965
14856 14857
14856 23965
14857 14858
14857 31886
14857 14858
14857 31886
14858 14859
14858 14860
14858 14859
14858 14860
14860 14861
14860 31891
14860 14861
14860 31891
14861 14862
14861 31893
14861 14862
14861 31893
14862 14863
14862 31902
14862 14863
14862 31902
14863 14864
14863 39757
14863 14864
14863 39757
14864 14865
14864 33873
14864 14865
14864 33873
14865 14866
14865 14881
14865 14866
14865 14881
14866 14867
14866 31877
14866 14867
14866 31877
14867 14868
14867 39735
14867 14868
14867 39735
14868 14869
14868 22645
14868 14869
14868 22645
14869 14870
14869 14878
14869 14870
14869 14878
14870 14871
14870 14873
14870 14871
14870 14873
14871 14872
14871 14872
14873 14874
14873 14875
14873 14874
14873 14875
14875 14876
14875 14877
14875 14876
14875 14877
14878 14879
14878 22646
14878 14879
14878 22646
14879 14880
14879 39740
14879 14880
14879 39740
14880 14881
14880 14881
14880 31876
14880 31876
14881 14882
14881 14882
14882 14883
14882 33874
14882 14883
14882 33874
14883 14884
14883 31915
14883 31916
14883 14884
14883 31915
14883 31916
14884 14885
14884 31774
14884 36870
14884 14885
14884 31774
14884 36870
14885 14886
14885 31855
14885 14886
14885 31855
14886 14887
14886 36866
14886 14887
14886 36866
14887 14888
14887 36865
14887 14888
14887 36865
14888 14889
14888 31816
14888 31824
14888 14889
14888 31816
14888 31824
14889 14890
14889 29371
14889 14890
14889 29371
14890 14891
14890 29370
14890 14891
14890 29370
14891 14893
14891 14892
14891 14893
14891 14892
14893 14894
14893 14894
31854 31855
31854 31855
31854 31883
31854 31885
31854 31883
31854 31885
14973 14974
14973 14981
14973 14982
14973 29369
14973 14974
14973 14981
14973 14982
14973 29369
14974 14975
14974 31848
14974 14975
14974 31848
14975 14976
14975 14977
14975 31847
14975 14976
14975 14977
14975 31847
14977 14978
14977 14979
14977 31847
14977 31847
14977 14978
14977 14979
14978 14979
14978 14979
14979 14980
14979 14980
14980 29370
14980 14981
14980 14981
14980 29370
14981 33861
14981 33861
31856 31857
31856 31872
31856 31921
31856 33881
31856 31857
31856 31872
31856 31921
31856 33881
31860 31861
31860 37223
31860 37229
31860 31861
31860 37223
31860 37229
31861 31862
31861 36885
31861 31862
31861 36885
29061 29062
29061 29063
29061 29062
29061 29063
31863 31864
31863 31867
31863 31864
31863 31867
31864 31865
31864 31866
31864 31865
31864 31866
31866 31867
31866 31867
31867 31868
31867 31868
31868 31869
31868 31870
31868 31869
31868 31870
29097 29098
29097 38654
29097 29098
29097 38654
31870 31871
31870 31910
31870 31871
31870 31910
31871 31872
31871 31872
31871 31907
31871 31907
146476 146477
146476 146477
146476 146956
146476 146956
146477 146479
146477 146479
146480 146951
146480 146951
146504 146508
146504 146508
146505 146506
146505 146508
146505 146508
146505 146506
146506 146507
146506 146507
146508 146509
146508 146509
31876 31877
31876 31877
146591 146592
146591 146599
146591 146600
146591 146592
146591 146599
146591 146600
146592 146593
146592 146598
146592 146593
146592 146598
146595 146596
146595 146596
146596 146603
146596 146603
146600 146602
146600 146603
146600 146603
146600 146602
31878 31879
31878 31879
15546 15547
15546 15550
15546 15547
15546 15550
15547 15548
15547 16382
15547 40520
15547 15548
15547 16382
15547 40520
15548 15549
15548 16383
15548 33578
15548 15549
15548 16383
15548 33578
15549 15550
15549 15550
146704 146705
146704 146705
146704 146706
146704 146707
146704 146706
146704 146707
146705 146706
146705 146706
146706 147046
146706 147046
31883 36866
31883 31884
31883 36866
31883 31884
146735 146736
146735 146736
146736 146743
146736 146743
146736 146744
146736 146744
15712 15713
15712 15713
15712 15718
15712 15719
15712 15718
15712 15719
15713 15714
15713 40848
15713 15714
15713 40848
15714 15715
15714 34850
15714 15715
15714 34850
15715 15716
15715 34861
15715 15716
15715 34861
15716 15717
15716 40846
15716 15717
15716 40846
15717 15718
15717 15718
15717 40845
15717 40845
31886 31887
31886 33884
31886 31887
31886 33884
29180 29181
29180 29184
29180 32757
29180 29181
29180 29184
29180 32757
29181 29182
29181 29182
29181 29191
29181 29191
29182 29189
29182 41052
29182 29189
29182 41052
31887 31888
31887 31888
31887 33885
31887 33885
29185 29192
29185 29186
29185 29186
29185 29192
31888 31889
31888 31889
31889 33880
31889 31890
31889 31903
31889 33880
31889 31890
31889 31903
146889 146958
146889 146958
146894 146895
146894 146895
146895 146933
146895 146933
146896 146933
146896 146933
146901 146903
146901 146903
146904 146906
146904 146906
146904 147781
146904 147781
146906 146907
146906 146907
31890 31891
31890 31916
31890 31891
31890 31916
29202 41632
29202 41632
29203 38638
29203 29205
29203 38638
29203 29205
31891 31897
31891 31897
146933 146934
146933 146934
146939 146942
146939 146942
29205 38621
29205 38621
146942 146943
146942 146944
146942 146943
146942 146944
146949 146951
146949 146951
146951 146953
146951 146953
146954 146955
146954 146955
146956 146957
146956 146957
29218 29219
29218 29325
29218 29219
29218 29325
133425 133426
133425 139753
133425 139818
133425 139819
133425 133426
133425 139753
133425 139818
133425 139819
29219 29220
29219 29327
29219 29220
29219 29327
29220 29221
29220 29326
29220 29221
29220 29326
29221 29223
29221 29222
29221 29223
29221 29222
29223 29298
29223 29298
16010 16011
16010 29382
16010 16011
16010 29382
16011 29383
16011 29383
29240 29241
29240 38659
29240 29241
29240 38659
29243 29244
29243 38658
29243 29244
29243 38658
29251 29252
29251 29252
29258 29259
29258 29259
29259 29263
29259 29263
29262 29263
29262 29263
29262 39296
29262 39296
29263 39295
29263 39295
29264 29265
29264 29280
29264 29265
29264 29280
29265 29266
29265 29279
29265 29294
29265 29266
29265 29279
29265 29294
29288 29289
29288 38666
29288 29289
29288 38666
29290 29293
29290 29291
29290 29293
29290 29302
29290 29291
29290 29302
29292 29293
29292 29293
29292 31074
29292 31074
147397 147398
147397 147398
29300 29302
29300 29301
29300 29301
29300 29302
29300 31081
29300 31081
29301 29314
29301 29314
29302 31075
29302 31075
16381 16382
16381 16382
16381 16388
16381 33616
16381 16388
16381 33616
16382 33635
16382 33636
16382 33636
16382 33635
16383 16384
16383 40519
16383 16384
16383 40519
16384 16385
16384 16385
16385 16386
16385 33556
16385 33570
16385 16386
16385 33570
16385 33556
16386 16387
16386 33568
16386 16387
16386 33568
16387 16388
16387 16388
16387 33531
16387 33531
16388 33055
16388 33499
16388 33055
16388 33499
147464 147771
147464 147772
147464 147771
147464 147772
147541 147542
147541 147542
147566 147582
147566 147569
147566 147567
147566 147569
147566 147582
147566 147567
147569 147583
147569 147583
147582 147583
147582 147583
147583 147584
147583 147586
147583 147584
147583 147586
147614 147615
147614 147615
147615 147624
147615 147623
147615 147624
147615 147623
147623 147652
147623 147652
147640 147645
147640 147641
147640 147645
147640 147641
147641 147642
147641 147642
147642 147643
147642 147643
147643 147645
147643 147644
147643 147645
147643 147644
16578 16579
16578 33680
16578 34795
16578 16579
16578 33680
16578 34795
16579 33680
16579 40002
16579 33680
16579 40002
147652 147653
147652 147653
147652 147656
147652 147656
147656 147657
147656 147658
147656 147657
147656 147658
147658 147824
147658 147824
147773 147784
147773 147784
147779 147780
147779 147780
16834 16835
16834 16838
16834 16852
16834 16853
16834 16835
16834 16838
16834 16852
16834 16853
16835 16836
16835 16851
16835 16836
16835 16851
16836 16837
16836 21932
16836 16837
16836 21932
16837 16838
16837 16838
16837 21933
16837 21946
16837 21933
16837 21946
16838 21935
16838 21942
16838 21935
16838 21942
16851 16856
16851 16856
16851 16878
16851 16879
16851 16878
16851 16879
16853 16854
16853 21934
16853 21935
16853 21935
16853 16854
16853 21934
16854 16855
16854 21930
16854 21934
16854 21934
16854 16855
16854 21930
16855 16856
16855 16856
16855 21598
16855 21924
16855 21930
16855 21930
16855 21598
16855 21924
16856 21886
16856 21886
16878 21940
16878 16879
16878 21939
16878 21940
16878 16879
16878 21939
16879 21880
16879 21936
16879 21936
16879 21880
16899 16900
16899 16901
16899 21362
16899 21383
16899 16900
16899 16901
16899 21383
16899 21362
16900 16903
16900 21369
16900 16903
16900 21369
16901 16902
16901 21382
16901 22283
16901 16902
16901 21382
16901 22283
16902 16903
16902 16903
16902 22272
16902 22284
16902 22284
16902 22272
16903 21370
16903 21370
17032 17033
17032 17059
17032 17033
17032 17059
17033 17058
17033 17058
17058 17059
17058 17059
17058 22946
17058 22946
17059 41477
17059 41477
17378 17379
17378 17385
17378 38001
17378 17379
17378 17385
17378 38001
17379 17380
17379 37997
17379 17380
17379 37997
17380 17381
17380 36581
17380 36582
17380 17381
17380 36581
17380 36582
17381 17382
17381 37990
17381 17382
17381 37990
17382 17383
17382 37986
17382 17383
17382 37986
17383 17384
17383 21877
17383 17384
17383 21877
17384 17385
17384 17385
17384 21881
17384 21881
17385 17396
17385 41668
17385 17396
17385 41668
17395 21939
17395 21881
17395 17396
17395 17396
17395 17397
17395 21881
17395 21939
17395 17397
17396 17398
17396 22103
17396 17398
17396 22103
17397 31944
17397 17398
17397 21941
17397 31944
17397 17398
17397 21941
17398 22105
17398 22105
17766 17767
17766 17768
17766 22318
17766 22320
17766 17767
17766 17768
17766 22318
17766 22320
17767 17768
17767 17788
17767 17789
17767 17768
17767 17788
17767 17789
17768 21983
17768 36573
17768 21983
17768 36573
17788 17790
17788 21982
17788 17790
17788 21982
17789 17790
17789 21979
17789 17790
17789 21979
17790 21978
17790 36580
17790 21978
17790 36580
17802 17803
17802 35598
17802 17803
17802 35598
17803 40727
17803 17804
17803 17804
17803 40727
17804 42114
17804 42114
17994 17995
17994 17996
17994 35592
17994 17995
17994 17996
17994 35592
17995 17996
17995 35594
17995 17996
17995 35594
17996 35593
17996 35593
18044 18045
18044 37724
18044 18045
18044 37724
18045 37725
18045 41658
18045 37725
18045 41658
18348 18349
18348 18349
18348 35968
18348 35970
18348 35968
18348 35970
18349 22936
18349 23091
18349 22936
18349 23091
18788 36510
18788 36510
19134 19135
19134 19136
19134 43191
19134 43194
19134 19135
19134 19136
19134 43191
19134 43194
19135 19137
19135 42036
19135 42037
19135 19137
19135 42037
19135 42036
19136 19137
19136 42040
19136 43211
19136 19137
19136 42040
19136 43211
19137 42040
19137 42040
19452 19453
19452 19454
19452 19486
19452 19453
19452 19454
19452 19486
19453 19482
19453 22499
19453 19482
19453 22499
19454 19455
19454 22381
19454 19455
19454 22381
19455 19456
19455 19456
19456 19457
19456 22559
19456 19457
19456 22559
19457 19458
19457 19459
19457 19458
19457 19459
19459 19460
19459 19461
19459 19460
19459 19461
19461 22559
19461 19462
19461 22559
19461 19462
19462 19463
19462 22622
19462 19463
19462 22622
19463 19464
19463 22606
19463 19464
19463 22606
19464 19465
19464 19467
19464 19465
19464 19467
19465 19466
19465 19467
19465 19467
19465 19466
19467 19468
19467 19468
19468 19469
19468 22605
19468 19469
19468 22605
19469 19470
19469 22616
19469 19470
19469 22616
19470 19471
19470 22615
19470 19471
19470 22615
19471 19472
19471 22614
19471 19472
19471 22614
19472 19473
19472 22515
19472 19473
19472 22515
19473 19474
19473 22554
19473 19474
19473 22554
19474 19475
19474 22566
19474 19475
19474 22566
19475 19476
19475 22414
19475 19476
19475 22414
19476 19477
19476 19477
19476 22418
19476 22418
19477 22314
19477 36642
19477 22314
19477 36642
19480 19481
19480 22393
19480 19481
19480 22393
19481 19482
19481 19482
19481 22501
19481 22501
19482 22500
19482 22501
19482 22502
19482 22501
19482 22500
19482 22502
19483 19486
19483 19484
19483 19485
19483 19486
19483 19484
19483 19485
19485 19486
19485 22381
19485 19486
19485 22381
19584 19585
19584 39792
19584 19585
19584 39792
19585 39805
19585 39805
19673 19674
19673 19675
19673 32875
19673 33316
19673 19674
19673 19675
19673 33316
19673 32875
19674 19690
19674 23176
19674 23177
19674 19690
19674 23176
19674 23177
19675 19676
19675 19677
19675 19676
19675 19677
19677 19678
19677 19679
19677 19678
19677 19679
19679 32898
19679 19680
19679 32898
19679 42131
19679 19680
19679 42131
19680 19681
19680 32912
19680 32915
19680 19681
19680 32912
19680 32915
19681 19682
19681 32915
19681 32915
19681 19682
19682 19683
19682 32914
19682 19683
19682 32914
19683 19684
19683 19684
19684 19685
19684 19685
19685 19686
19685 33322
19685 19686
19685 33322
19686 19687
19686 19688
19686 19687
19686 19688
19688 19689
19688 23170
19688 19689
19688 23170
19689 19690
19689 19690
19689 23169
19689 23169
19690 19691
19690 19691
19699 19700
19699 19701
19699 19700
19699 19701
19700 19701
19700 19701
19701 34321
19701 34321
19829 19830
19829 19851
19829 19830
19829 19851
19830 21866
19830 21866
19851 21868
19851 21868
19872 38866
19872 38866
19980 19985
19980 19981
19980 19985
19980 41482
19980 19981
19980 41482
19981 19982
19981 41481
19981 19982
19981 41481
19982 19983
19982 42333
19982 19983
19982 42333
19983 19984
19983 19984
19983 42332
19983 42332
19984 42331
19984 42331
19985 35595
19985 35595
20307 20308
20307 20309
20307 37243
20307 20308
20307 20309
20307 37243
20309 20310
20309 20558
20309 20310
20309 20558
20310 20311
20310 20570
20310 20311
20310 20570
20332 39948
20332 20333
20332 20336
20332 39948
20332 20333
20332 20336
20333 20334
20333 20334
20334 20335
20334 41395
20334 42224
20334 20335
20334 41395
20334 42224
20335 20336
20335 20336
20335 41397
20335 41397
20336 41479
20336 41479
20350 20351
20350 37725
20350 37725
20350 20351
20351 20352
20351 20352
20351 25880
20351 25880
20352 25878
20352 25878
20356 20357
20356 20357
20357 20358
20357 20358
20357 37242
20357 37242
20358 37243
20358 37243
20359 20360
20359 20368
20359 20360
20359 20368
20360 20361
20360 20394
20360 20361
20360 20394
20361 20362
20361 20377
20361 20362
20361 20377
20362 20363
20362 20363
20367 20368
20367 20368
20367 20374
20367 20374
20368 20374
20368 136025
20368 20374
20368 136025
20377 20378
20377 43469
20377 20378
20377 43469
20383 20384
20383 20385
20383 20803
20383 31067
20383 20384
20383 20385
20383 20803
20383 31067
20384 20389
20384 20802
20384 41796
20384 20389
20384 20802
20384 41796
20385 20386
20385 20771
20385 20386
20385 20771
20386 20387
20386 20793
20386 20387
20386 20793
20387 20388
20387 20768
20387 20788
20387 20388
20387 20788
20387 20768
20388 20389
20388 20389
20388 20779
20388 20780
20388 20779
20388 20780
20389 20800
20389 20800
20391 20775
20391 20392
20391 20775
20391 20805
20391 20392
20391 20805
20392 20779
20392 20393
20392 20779
20392 20805
20392 20805
20392 20393
20393 20394
20393 20779
20393 20394
20393 20779
20394 20782
20394 20782
20455 20456
20455 20479
20455 20494
20455 20456
20455 20479
20455 20494
20456 20457
20456 20564
20456 20565
20456 20457
20456 20564
20456 20565
20457 20458
20457 20715
20457 20458
20457 20715
20458 20459
20458 20540
20458 20459
20458 20540
20459 20465
20459 20460
20459 20465
20459 20535
20459 20460
20459 20535
20465 20533
20465 20533
20477 20478
20477 20478
20478 20479
20478 20479
20478 36511
20478 36511
20479 20532
20479 20532
20492 20493
20492 20493
20493 20494
20493 20494
20494 20495
20494 20495
20495 20532
20495 20496
20495 20532
20495 20496
20520 20521
20520 20526
20520 34386
20520 20521
20520 20526
20520 34386
20521 20522
20521 20522
20522 20523
20522 38754
20522 20523
20522 38754
20523 20524
20523 34420
20523 20524
20523 34420
20524 20525
20524 20525
20525 20526
20525 20526
20525 34422
20525 34422
20526 34387
20526 34387
20533 20534
20533 20598
20533 20534
20533 20598
20534 25505
20534 20541
20534 25505
20534 20541
20540 20541
20540 37305
20540 20541
20540 37305
20545 20598
20545 20598
20546 20547
20546 20548
20546 20547
20546 20548
20547 31673
20547 20550
20547 31673
20547 31947
20547 20550
20547 31947
20548 22396
20548 22396
20554 20718
20554 25505
20554 20555
20554 20556
20554 20718
20554 25505
20554 20555
20554 20556
20555 20557
20555 20717
20555 20722
20555 20557
20555 20717
20555 20722
20556 25505
20556 20557
20556 25505
20556 29260
20556 20557
20556 29260
20557 20564
20557 20564
20557 29260
20557 29260
20558 20559
20558 20561
20558 20559
20558 20561
20559 20560
20559 20561
20559 20561
20559 20560
20561 20562
20561 20562
20562 20563
20562 37240
20562 20563
20562 37240
20563 20564
20563 20564
20563 20713
20563 20714
20563 41778
20563 41779
20563 20713
20563 20714
20563 41779
20563 41778
20564 20715
20564 20715
20565 20566
20565 43466
20565 20566
20565 43466
20566 20567
20566 20568
20566 20567
20566 20568
20568 20569
20568 43465
20568 20569
20568 43465
20569 20570
20569 20570
20571 20572
20571 20576
20571 20725
20571 20576
20571 20572
20571 20725
20572 20573
20572 20574
20572 20573
20572 20574
20573 20574
20573 20574
20574 20575
20574 20575
20576 20577
20576 42907
20576 20577
20576 42907
20598 41917
20598 41917
20599 20600
20599 25210
20599 20600
20599 25210
20600 20601
20600 25383
20600 20601
20600 25383
20601 20602
20601 20603
20601 20602
20601 20603
20603 20604
20603 25382
20603 20604
20603 25382
20604 20605
20604 20606
20604 20605
20604 20606
20606 20607
20606 42687
20606 20607
20606 42687
20630 20631
20630 20702
20630 20631
20630 20702
20631 20632
20631 20635
20631 20632
20631 20635
20632 20633
20632 20634
20632 20635
20632 20635
20632 20633
20632 20634
20635 20636
20635 20636
20636 20637
20636 20712
20636 20637
20636 20712
20637 20638
20637 20638
20637 20721
20637 20721
20641 20643
20641 21608
20641 20643
20641 21608
20643 21615
20643 21621
20643 21615
20643 21621
20655 23896
20655 39962
20655 23896
20655 39962
1593554 1597807
1593554 1597807
1593565 1593570
1593565 1593570
20702 20703
20702 20712
20702 20712
20702 20703
1593568 1593570
1593568 1593570
1593570 1593735
1593570 1607719
1593570 1593735
1593570 1607719
20710 20711
20710 20719
20710 20711
20710 20719
20711 20712
20711 20712
20713 20714
20713 20737
20713 41778
20713 20714
20713 41778
20713 20737
20714 20722
20714 20722
20714 20736
20714 20742
20714 20736
20714 20742
20715 29260
20715 29260
20716 20718
20716 20717
20716 20717
20716 20718
20717 20722
20717 20742
20717 20722
20717 20742
20718 20723
20718 20723
20719 37908
20719 20720
20719 37908
20719 20720
20720 20721
20720 20721
20720 37907
20720 37907
20722 20742
20722 20742
20723 20724
20723 39068
20723 39088
20723 20724
20723 39068
20723 39088
20724 20725
20724 20725
20724 42908
20724 42908
20725 20726
20725 20726
20726 20727
20726 20727
20727 20728
20727 20728
20729 20730
20729 20734
20729 20766
20729 20837
20729 20730
20729 20734
20729 20766
20729 20837
20730 20731
20730 40126
20730 20731
20730 40126
20731 20732
20731 36070
20731 40127
20731 20732
20731 36070
20731 40127
20732 36071
20732 20734
20732 20733
20732 20734
20732 36071
20732 20733
20734 20763
20734 20763
20735 20736
20735 20736
20735 20738
20735 20755
20735 20756
20735 20738
20735 20755
20735 20756
20736 20763
20736 20763
20737 41778
20737 20738
20737 41778
20737 20738
20738 20765
20738 20765
1593598 1593599
1593598 1600108
1593598 1593599
1593598 1600108
1593599 1598772
1593599 1598772
1593600 1593601
1593600 1593602
1593600 1607299
1593600 1610657
1593600 1593601
1593600 1593602
1593600 1607299
1593600 1610657
20743 20744
20743 20745
20743 33380
20743 20744
20743 20745
20743 33380
1593601 1594982
1593601 1593602
1593601 1594982
1593601 1593602
20745 20746
20745 27377
20745 20746
20745 27377
20746 20747
20746 20748
20746 20747
20746 20748
20748 20749
20748 20750
20748 20749
20748 20750
20750 20751
20750 20752
20750 20751
20750 20752
1593612 1593613
1593612 1600921
1593612 1593613
1593612 1600921
1593613 1609069
1593613 1609069
1593609 1598739
1593609 1598764
1593609 1598739
1593609 1598764
20755 20756
20755 20761
20755 20756
20755 20761
1593611 1600091
1593611 1600091
1593615 1593617
1593615 1600142
1593615 1600146
1593615 1593617
1593615 1600142
1593615 1600146
1593616 1593617
1593616 1598619
1593616 1600109
1593616 1593617
1593616 1600109
1593616 1598619
1593617 1600116
1593617 1600116
20753 20754
20753 27373
20753 27373
20753 20754
20752 20753
20752 20753
20752 27373
20752 27375
20752 27373
20752 27375
20756 20768
20756 20764
20756 20768
20756 20787
20756 20764
20756 20787
20761 20762
20761 20769
20761 20762
20761 20769
20762 20768
20762 20763
20762 20763
20762 20767
20762 20768
20762 20767
20763 36077
20763 36077
20764 20765
20764 20765
20764 20784
20764 20785
20764 20785
20764 20784
20766 20767
20766 20837
20766 20837
20766 20767
20767 20770
20767 20770
20768 20771
20768 20771
20770 20772
20770 20831
20770 20832
20770 20772
20770 20832
20770 20831
20771 20772
20771 20772
20774 20838
20774 20838
20772 20812
20772 20812
20773 20774
20773 20775
20773 20774
20773 20775
20773 20838
20773 20838
20775 20801
20775 20801
20776 20785
20776 20784
20776 20777
20776 20778
20776 20781
20776 20783
20776 20784
20776 20785
20776 20777
20776 20778
20776 20783
20776 20781
20777 20778
20777 20781
20777 20778
20777 20781
20778 20782
20778 20782
20780 20781
20780 20786
20780 20781
20780 20786
20781 20786
20781 20786
20782 20783
20782 20783
20783 41779
20783 20784
20783 20784
20783 41779
20784 41777
20784 41777
20785 20787
20785 20786
20785 20787
20785 20786
20786 20789
20786 20789
20787 20789
20787 20789
20788 20789
20788 20790
20788 20789
20788 20790
20790 20791
20790 20792
20790 20791
20790 20792
20793 20794
20793 20797
20793 20794
20793 20797
20794 20795
20794 20796
20794 20795
20794 20796
20798 20804
20798 20801
20798 20799
20798 20801
20798 20804
20798 20799
20799 20800
20799 20800
20799 41795
20799 41935
20799 41935
20799 41795
20800 41796
20800 20801
20800 41796
20800 20801
20801 20805
20801 20805
20802 20803
20802 20803
20802 20813
20802 31051
20802 20813
20802 31051
20803 20812
20803 20812
20806 20807
20806 20808
20806 20809
20806 20807
20806 20808
20806 20809
20807 20810
20807 21513
20807 21514
20807 20810
20807 21513
20807 21514
20809 20810
20809 21512
20809 20810
20809 21512
20810 41670
20810 41685
20810 41670
20810 41685
20812 20813
20812 20813
20813 31051
20813 31051
20811 20813
20811 21122
20811 20813
20811 21122
20830 20832
20830 20831
20830 20831
20830 20832
20830 29170
20830 29170
20831 29173
20831 29173
20832 20833
20832 20833
20833 20834
20833 29158
20833 29168
20833 20834
20833 29158
20833 29168
20834 20835
20834 29161
20834 29162
20834 20835
20834 29161
20834 29162
20835 20837
20835 20836
20835 20837
20835 20836
20838 40902
20838 137169
20838 40902
20838 137169
20839 20840
20839 21193
20839 20840
20839 21193
20840 20841
20840 20843
20840 21192
20840 20841
20840 20843
20840 21192
20841 20842
20841 20843
20841 20843
20841 20842
20843 20844
20843 20861
20843 20844
20843 20861
20844 20845
20844 20848
20844 20869
20844 20845
20844 20848
20844 20869
20845 20846
20845 20847
20845 20846
20845 20847
20846 20847
20846 20847
20848 20849
20848 20849
20848 21969
20848 21969
20849 21969
20849 21969
1593723 1593735
1593723 1593724
1593723 1593735
1593723 1603560
1593723 1603598
1593723 1593724
1593723 1603598
1593723 1603560
20860 137169
20860 137169
20861 20862
20861 21201
20861 20862
20861 21201
20862 20863
20862 37263
20862 20863
20862 37263
20863 20864
20863 20864
20864 20865
20864 20865
20865 37263
20865 20866
20865 37263
20865 20866
20866 20867
20866 20867
20867 20868
20867 20868
20868 20869
20868 20869
20868 40782
20868 40782
20869 21970
20869 21970
1593735 1603527
1593735 1603561
1593735 1603561
1593735 1603527
20875 20876
20875 21875
20875 20876
20875 21875
20876 20877
20876 21833
20876 20877
20876 21833
20877 20878
20877 20878
20877 21853
20877 21853
20878 21852
20878 21852
20879 20880
20879 20885
20879 20888
20879 20880
20879 20885
20879 20888
20880 20881
20880 20887
20880 20881
20880 20887
1593747 1593748
1593747 1593749
1593747 1603483
1593747 1593748
1593747 1593749
1593747 1603483
1593748 1593749
1593748 1603252
1593748 1593749
1593748 1603252
1593749 1603253
1593749 1603253
20886 20887
20886 20887
20886 20890
20886 35861
20886 20890
20886 35861
20887 35861
20887 41710
20887 35861
20887 41710
20888 20889
20888 20889
20889 20890
20889 20890
20889 43228
20889 43228
1593750 1593751
1593750 1593756
1593750 1599534
1593750 1604833
1593750 1593751
1593750 1593756
1593750 1599534
1593750 1604833
1593752 1593753
1593752 1598944
1593752 1593753
1593752 1598944
1593751 1593752
1593751 1593752
20891 20896
20891 20892
20891 20896
20891 21389
20891 20892
20891 21389
1593756 1593757
1593756 1599531
1593756 1593757
1593756 1599531
20892 20893
20892 21388
20892 21528
20892 20893
20892 21388
20892 21528
1593753 1593754
1593753 1598943
1593753 1599530
1593753 1593754
1593753 1599530
1593753 1598943
20896 137505
20896 137505
1593754 1593756
1593754 1593755
1593754 1593756
1593754 1599530
1593754 1599530
1593754 1593755
20895 20896
20895 20896
20895 35860
20895 35860
20893 20894
20893 20894
20894 21528
20894 20895
20894 21528
20894 20895
21016 21017
21016 21020
21016 35124
21016 39931
21016 21017
21016 21020
21016 35124
21016 39931
21017 21018
21017 35754
21017 21018
21017 35754
21018 21019
21018 35241
21018 21019
21018 35241
21019 21020
21019 21020
21104 21106
21104 21106
21106 21184
21106 21107
21106 21184
21106 21107
21121 21122
21121 21122
21122 41945
21122 41945
21124 21428
21124 21428
21153 21154
21153 21154
21153 21155
21153 21231
21153 21497
21153 21155
21153 21231
21153 21497
21154 21429
21154 21497
21154 21497
21154 21429
21155 21156
21155 21214
21155 21219
21155 21156
21155 21214
21155 21219
21156 21157
21156 21157
21156 21228
21156 21228
21157 21211
21157 21228
21157 21228
21157 21211
21162 21163
21162 21164
21162 21241
21162 21243
21162 21163
21162 21164
21162 21243
21162 21241
21163 21166
21163 21208
21163 21210
21163 21166
21163 21208
21163 21210
21164 21165
21164 21234
21164 21165
21164 21234
21165 21166
21165 21166
21165 21198
21165 21198
21166 21217
21166 21217
21182 21183
21182 21183
21183 21195
21183 21195
21192 21193
21192 21193
21192 21197
21192 21203
21192 21197
21192 21203
21193 21199
21193 21199
21194 21196
21194 21195
21194 21199
21194 21195
21194 21196
21194 21199
21195 21214
21195 21211
21195 21211
21195 21214
21197 21201
21197 21198
21197 21198
21197 21201
21198 21234
21198 21200
21198 21234
21198 21200
21199 21200
21199 21213
21199 21200
21199 21213
21200 21215
21200 21218
21200 21215
21200 21218
21201 21202
21201 21202
21202 21203
21202 21203
21204 21205
21204 21206
21204 21236
21204 21205
21204 21206
21204 21236
21205 21210
21205 21210
21205 21627
21205 21649
21205 21649
21205 21627
21206 21208
21206 21207
21206 21208
21206 21207
21208 21209
21208 21242
21208 21209
21208 21242
21210 21216
21210 21622
21210 21216
21210 21622
21211 21228
21211 21228
21212 21214
21212 21213
21212 21213
21212 21214
21212 21229
21212 21230
21212 21229
21212 21230
21213 21215
21213 21230
21213 21215
21213 21230
21214 21228
21214 21228
21215 21222
21215 21230
21215 21230
21215 21222
21216 21221
21216 21612
21216 21616
21216 21221
21216 21612
21216 21616
21218 21219
21218 21219
21218 21222
21218 21235
21218 21222
21218 21235
21219 21220
21219 21229
21219 21229
21219 21220
21220 21615
21220 21221
21220 21221
21220 21233
21220 21615
21220 21233
21221 21614
21221 21614
21222 21235
21222 21235
21229 21230
21229 21235
21229 21230
21229 21235
21231 21232
21231 21232
21232 21233
21232 21233
21233 21621
21233 21621
1594096 1594097
1594096 1594098
1594096 1597175
1594096 1594097
1594096 1594098
1594096 1597175
21236 21237
21236 21237
21236 21242
21236 21667
21236 21242
21236 21667
21237 21679
21237 21679
1594098 1594099
1594098 1594113
1594098 1599504
1594098 1594099
1594098 1594113
1594098 1599504
21234 21243
21234 21243
1594097 1594099
1594097 1594099
21238 21239
21238 21263
21238 21239
21238 21263
21239 21240
21239 21264
21239 40794
21239 21240
21239 21264
21239 40794
21240 21243
21240 21241
21240 21241
21240 21243
21241 21242
21241 21242
21243 40793
21243 40793
21244 21685
21244 21245
21244 21250
21244 21685
21244 21245
21244 21250
21245 21246
21245 21688
21245 21246
21245 21688
21246 21247
21246 21691
21246 41679
21246 21247
21246 21691
21246 41679
21247 21248
21247 37961
21247 21248
21247 37961
21248 21249
21248 21249
21249 21250
21249 21250
21249 21684
21249 21684
21250 21251
21250 21251
1594113 1594114
1594113 1594114
21252 21253
21252 21254
21252 21255
21252 21253
21252 21254
21252 21255
21253 21259
21253 39504
21253 21259
21253 39504
21255 21256
21255 40829
21255 21256
21255 40829
21256 21257
21256 41101
21256 21257
21256 41101
21257 21258
21257 41101
21257 41101
21257 21258
21258 21259
21258 21259
21258 32788
21258 32788
21259 32830
21259 32830
21260 21261
21260 21262
21260 21681
21260 21261
21260 21262
21260 21681
21261 21263
21261 21263
21261 21663
21261 21664
21261 21663
21261 21664
21262 21263
21262 21263
21262 21682
21262 21682
21263 21264
21263 21264
21264 37961
21264 40779
21264 37961
21264 40779
21273 21274
21273 21274
21274 21275
21274 21551
21274 21596
21274 21275
21274 21596
21274 21551
21322 21323
21322 21323
21322 21324
21322 21324
21323 21324
21323 21324
21361 21362
21361 21362
21361 21363
21361 21363
21362 21369
21362 21369
21363 21364
21363 21365
21363 21364
21363 21365
21365 21366
21365 21419
21365 21366
21365 21419
21366 21367
21366 21368
21366 21367
21366 21368
21368 21369
21368 21369
21370 21371
21370 21372
21370 40462
21370 21371
21370 21372
21370 40462
21372 21373
21372 21374
21372 22358
21372 21373
21372 21374
21372 22358
21374 21375
21374 22357
21374 21375
21374 22357
21375 21376
21375 21376
21376 22357
21376 21377
21376 22321
21376 22357
21376 21377
21376 22321
21377 21378
21377 21856
21377 22325
21377 21378
21377 22325
21377 21856
21378 21379
21378 21855
21378 21379
21378 21855
21379 22299
21379 21380
21379 22299
21379 21380
21380 21381
21380 22297
21380 21381
21380 22297
21381 21382
21381 21382
21381 22297
21381 22297
21382 22283
21382 22339
21382 22283
21382 22339
21384 21389
21384 21385
21384 21389
21384 21832
21384 137642
21384 21385
21384 21832
21384 137642
21385 21386
21385 21834
21385 21386
21385 21834
21386 21387
21386 21834
21386 21834
21386 21387
21387 21388
21387 21388
21387 21523
21387 21523
21388 21523
21388 21523
1594291 1594292
1594291 1602111
1594291 1594292
1594291 1602111
1594292 1602110
1594292 1602110
21428 21429
21428 21596
21428 21429
21428 21596
1594293 1602109
1594293 1602109
21429 21497
21429 21497
21429 21609
21429 21609
1594302 1594303
1594302 1610386
1594302 1794460
1594302 1594303
1594302 1610386
1594302 1794460
1594303 1610387
1594303 1610387
1594304 1594305
1594304 1594306
1594304 1610400
1594304 1594305
1594304 1594306
1594304 1610400
1594305 1594306
1594305 1792791
1594305 1594306
1594305 1792791
1594306 1610399
1594306 1610399
1594307 1594308
1594307 1602043
1594307 1594308
1594307 1602043
1594308 1602044
1594308 1602044
1594309 1594310
1594309 1594311
1594309 1594917
1594309 1594310
1594309 1594311
1594309 1594917
1594310 1594311
1594310 1594913
1594310 1594311
1594310 1594913
1594311 1602043
1594311 1602043
1594312 1594313
1594312 1594314
1594312 1594313
1594312 1594314
1594313 1594315
1594313 1602080
1594313 1594315
1594313 1602080
1594314 1594917
1594314 1594315
1594314 1594917
1594314 1594315
1594315 1594916
1594315 1594916
1594321 1594322
1594321 1594323
1594321 1599673
1594321 1599674
1594321 1594322
1594321 1594323
1594321 1599673
1594321 1599674
1594322 1594323
1594322 1598791
1594322 1594323
1594322 1598791
1594323 1599672
1594323 1599672
1594324 1594325
1594324 1594326
1594324 1594337
1594324 1594325
1594324 1594326
1594324 1594337
1594325 1594328
1594325 1594329
1594325 1594328
1594325 1594329
1594326 1598791
1594326 1594327
1594326 1598791
1594326 1598792
1594326 1594327
1594326 1598792
1594327 1594328
1594327 1594328
1594329 1599672
1594329 1594330
1594329 1599672
1594329 1594330
1594330 1594331
1594330 1599671
1594330 1594331
1594330 1599671
1594331 1599704
1594331 1599704
1594334 1594335
1594334 1594335
1594335 1594336
1594335 1599380
1594335 1599407
1594335 1594336
1594335 1599407
1594335 1599380
1594336 1594337
1594336 1594337
1594336 1599606
1594336 1599606
1594337 1599608
1594337 1599608
1594360 1594361
1594360 1594367
1594360 1597802
1594360 1597821
1594360 1594361
1594360 1594367
1594360 1597821
1594360 1597802
1594361 1594362
1594361 1597821
1594361 1597821
1594361 1594362
1594366 1594367
1594366 1594367
1594367 1597801
1594367 1597801
21506 21507
21506 21518
21506 21739
21506 21507
21506 21518
21506 21739
21507 21508
21507 21509
21507 21508
21507 21509
21509 21510
21509 21511
21509 21510
21509 21511
21511 21512
21511 21512
21511 32771
21511 32771
1594375 1594376
1594375 1594386
1594375 1607726
1594375 1594376
1594375 1607726
1594375 1594386
1594376 1597199
1594376 1597199
21514 21515
21514 33113
21514 21515
21514 33113
1594379 1594380
1594379 1604057
1594379 1604499
1594379 1594380
1594379 1604057
1594379 1604499
1594380 1594383
1594380 1604150
1594380 1594383
1594380 1604150
21518 21720
21518 21722
21518 21720
21518 21722
1594381 1594383
1594381 1594382
1594381 1594383
1594381 1594388
1594381 1594382
1594381 1594388
1594382 1604149
1594382 1604201
1594382 1604149
1594382 1604201
1594383 1603357
1594383 1604052
1594383 1604052
1594383 1603357
21515 21516
21515 21692
21515 21694
21515 21516
21515 21692
21515 21694
1594386 1594387
1594386 1604052
1594386 1604053
1594386 1604052
1594386 1594387
1594386 1604053
1594387 1594388
1594387 1594388
1594388 1597199
1594388 1597199
1594388 1604052
1594388 1604052
21517 21518
21517 21518
21517 21737
21517 21737
21523 21524
21523 21524
21528 21529
21528 21529
21524 21525
21524 21850
21524 21525
21524 21850
21527 21528
21527 21528
21527 21529
21527 21529
21529 27114
21529 27113
21529 27114
21529 27113
21525 21526
21525 40943
21525 21526
21525 40943
21526 21527
21526 27114
21526 21527
21526 27114
1594407 1594408
1594407 1602323
1594407 1594408
1594407 1602323
1594408 1605446
1594408 1605446
21552 21553
21552 21553
21552 21595
21552 21595
21553 21598
21553 21598
21570 21571
21570 21580
21570 21624
21570 21626
21570 21571
21570 21580
21570 21626
21570 21624
21571 21572
21571 21735
21571 21572
21571 21735
21572 21735
21572 21735
21574 21575
21574 24017
21574 21575
21574 24017
21575 21576
21575 37965
21575 21576
21575 37965
21576 21577
21576 36535
21576 21577
21576 36535
21577 21627
21577 21578
21577 21627
21577 36552
21577 21578
21577 36552
21578 21580
21578 21579
21578 21580
21578 21579
21580 21626
21580 21626
21586 21591
21586 21882
21586 21882
21586 21591
21590 21591
21590 21591
21591 21882
21591 21882
21594 21595
21594 21595
21595 21617
21595 21628
21595 21617
21595 21628
21596 21608
21596 21616
21596 21608
21596 21616
21596 21617
21596 21618
21596 21617
21596 21618
21598 21599
21598 21611
21598 21599
21598 21600
21598 21610
21598 21611
21598 21600
21598 21610
21599 21924
21599 21931
21599 21924
21599 21931
21600 21611
21600 21611
21601 21606
21601 21606
21601 21876
21601 21876
21606 21847
21606 21847
21608 21609
21608 21609
21610 21611
21610 21888
21610 21611
21610 21888
21612 21613
21612 21614
21612 21619
21612 21620
21612 21614
21612 21613
21612 21619
21612 21620
21613 21615
21613 21614
21613 21614
21613 21615
21613 21620
21613 21620
21615 21618
21615 21618
21616 21622
21616 21617
21616 21619
21616 21622
21616 21617
21616 21619
21618 21620
21618 21620
21619 21620
21619 21620
1594486 1594487
1594486 1604689
1594486 1604782
1594486 1604789
1594486 1594487
1594486 1604782
1594486 1604689
1594486 1604789
1594487 1604477
1594487 1604681
1594487 1604753
1594487 1604681
1594487 1604477
1594487 1604753
21622 21627
21622 21627
21625 21626
21625 21626
21623 21935
21623 21934
21623 21624
21623 21624
21623 21629
21623 21934
21623 21935
21623 21629
21628 21629
21628 21629
21627 21650
21627 21650
21624 21625
21624 21625
21629 21929
21629 21929
21630 21631
21630 21632
21630 21756
21630 21821
21630 21835
21630 21631
21630 21632
21630 21756
21630 21835
21630 21821
21631 21647
21631 21820
21631 21821
21631 21821
21631 21647
21631 21820
21632 21633
21632 21766
21632 21633
21632 21766
21633 21634
21633 36840
21633 21634
21633 36840
21636 21637
21636 36835
21636 21637
21636 36835
21637 21638
21637 36079
21637 21638
21637 36079
21634 21635
21634 36837
21634 21635
21634 36837
21638 21639
21638 36082
21638 21639
21638 36082
21639 21640
21639 36832
21639 21640
21639 36832
21640 21641
21640 21745
21640 39483
21640 21641
21640 21745
21640 39483
21641 21642
21641 21648
21641 21657
21641 21642
21641 21648
21641 21657
21643 21644
21643 32852
21643 21644
21643 32852
21644 21645
21644 39496
21644 21645
21644 39496
21642 21643
21642 36952
21642 21643
21642 36952
21646 21647
21646 21647
21646 32866
21646 32866
21647 21803
21647 21803
21648 21649
21648 21745
21648 21649
21648 21697
21648 21728
21648 21745
21648 21697
21648 21728
21649 21650
21649 21697
21649 21650
21649 21697
21650 21651
21650 21651
21651 21652
21651 36551
21651 21652
21651 36551
21652 21653
21652 36554
21652 21653
21652 36554
21653 21654
21653 36824
21653 21654
21653 36824
21654 21655
21654 36826
21654 21655
21654 36826
21655 21656
21655 36827
21655 21656
21655 36827
21656 21657
21656 21657
21656 36828
21656 36828
21657 36830
21657 36830
21658 21659
21658 21673
21658 21718
21658 21659
21658 21673
21658 21718
21659 21660
21659 21719
21659 21660
21659 21719
21660 21661
21660 21661
21661 21662
21661 21717
21661 21662
21661 21717
21662 21716
21662 21663
21662 21663
21662 21716
21663 36533
21663 36533
21664 21677
21664 21665
21664 21677
21664 21665
21665 21667
21665 21666
21665 21667
21665 21666
21667 21668
21667 21668
21668 21669
21668 21672
21668 21669
21668 21672
21669 21670
21669 21670
21670 21672
21670 21671
21670 21672
21670 21671
21672 21673
21672 21673
21673 21674
21673 21674
21674 21675
21674 21676
21674 21675
21674 21676
21677 21678
21677 21678
21678 41449
21678 21679
21678 21679
21678 41449
21680 21681
21680 21682
21680 21681
21680 21682
21681 36533
21681 36533
21682 21684
21682 21684
21683 21684
21683 21686
21683 21684
21683 21686
21684 37962
21684 37962
21685 21688
21685 21708
21685 21688
21685 21708
21688 21689
21688 21689
21689 21690
21689 21695
21689 21696
21689 21690
21689 21695
21689 21696
21690 21691
21690 33113
21690 21691
21690 33113
21691 41679
21691 41679
21692 21693
21692 39485
21692 21693
21692 39485
21693 21696
21693 21696
21693 21738
21693 21738
21694 21695
21694 33112
21694 21695
21694 33112
21695 33111
21695 33111
21696 21708
21696 21708
21697 21711
21697 21711
21698 21699
21698 21700
21698 21699
21698 21700
21699 21703
21699 21704
21699 21703
21699 21704
21700 21701
21700 21734
21700 21701
21700 21734
21701 21702
21701 21702
21702 21703
21702 21703
21702 21712
21702 21713
21702 21712
21702 21713
21703 21711
21703 21711
21705 21710
21705 21706
21705 21710
21705 21733
21705 21706
21705 21733
21706 21722
21706 21707
21706 21722
21706 21707
21707 21708
21707 21738
21707 21708
21707 21738
21709 21710
21709 21710
21710 21734
21710 21734
21711 21718
21711 21717
21711 21717
21711 21718
21713 21714
21713 21714
21713 37963
21713 37963
21714 21715
21714 21715
21717 21719
21717 21719
21718 21719
21718 21719
21720 21721
21720 21727
21720 21721
21720 21727
21721 21733
21721 21723
21721 21733
21721 21723
21722 21723
21722 21723
21724 21725
21724 21726
21724 21732
21724 21725
21724 21726
21724 21732
21725 21727
21725 21727
21725 21732
21725 21732
21726 21739
21726 21727
21726 21727
21726 21739
21728 21729
21728 32761
21728 32777
21728 21729
21728 32761
21728 32777
21729 21730
21729 32766
21729 21730
21729 32766
21730 21731
21730 32815
21730 21731
21730 32815
21731 21732
21731 32766
21731 21732
21731 32766
21732 21739
21732 21739
21733 37964
21733 37964
21734 37963
21734 37963
21735 21736
21735 21752
21735 21736
21735 21752
21736 21755
21736 21755
21737 21738
21737 39485
21737 39485
21737 21738
21740 21741
21740 22324
21740 22330
21740 21741
21740 22324
21740 22330
21741 22340
21741 22351
21741 22340
21741 22351
21745 32864
21745 32864
21746 21747
21746 21751
21746 32973
21746 32975
21746 21747
21746 21751
21746 32975
21746 32973
21747 21748
21747 32997
21747 33014
21747 21748
21747 32997
21747 33014
21748 21749
21748 24395
21748 21749
21748 24395
21749 24394
21749 21750
21749 24394
21749 21750
21750 21751
21750 21751
21750 22050
21750 22050
21751 21957
21751 36847
21751 21957
21751 36847
21752 21935
21752 21753
21752 21935
21752 21753
21753 21754
21753 21780
21753 21943
21753 21754
21753 21780
21753 21943
21754 21755
21754 21755
21754 21790
21754 21790
21755 24017
21755 24017
21756 21757
21756 21957
21756 24099
21756 21957
21756 21757
21756 24099
21757 21758
21757 21960
21757 21758
21757 21960
21758 21759
21758 21763
21758 39528
21758 21759
21758 21763
21758 39528
21759 21760
21759 21761
21759 21760
21759 21761
21761 21762
21761 21762
21763 21764
21763 21765
21763 42712
21763 21764
21763 21765
21763 42712
21765 21766
21765 21766
21765 36839
21765 42711
21765 36839
21765 42711
21767 21768
21767 21769
21767 21774
21767 21818
21767 21768
21767 21769
21767 21774
21767 21818
21768 37984
21768 37984
21780 21781
21780 21819
21780 21781
21780 21819
21781 21782
21781 21782
21782 21783
21782 21791
21782 21783
21782 21791
21783 21784
21783 21785
21783 21784
21783 21785
21785 21786
21785 21787
21785 21786
21785 21787
21786 21787
21786 21787
21787 21788
21787 21788
21788 21789
21788 21794
21788 21789
21788 21794
21789 21790
21789 21790
21791 21819
21791 21792
21791 21819
21791 21792
21792 21818
21792 21793
21792 21818
21792 21793
21793 37984
21793 21794
21793 21794
21793 37984
21795 21803
21795 21796
21795 21797
21795 21803
21795 21796
21795 21797
21796 21801
21796 21802
21796 21801
21796 21802
21797 32866
21797 21798
21797 32866
21797 39499
21797 21798
21797 39499
21798 21799
21798 21799
21799 21800
21799 21800
21800 21801
21800 21801
21800 21805
21800 21805
21801 21804
21801 21804
21803 32867
21803 32867
21814 21816
21814 21816
21816 21818
21816 21817
21816 21818
21816 21817
21819 21820
21819 21820
21819 21892
21819 21892
21820 21823
21820 21823
21821 21822
21821 21823
21821 21823
21821 21822
21822 21823
21822 21823
21822 21837
21822 21837
21823 21892
21823 21892
21824 32852
21824 21825
21824 21830
21824 32852
21824 39497
21824 21825
21824 21830
21824 39497
21825 21826
21825 32854
21825 21826
21825 32854
21826 21827
21826 39493
21826 21827
21826 39493
21827 36828
21827 21828
21827 36828
21827 36829
21827 21828
21827 36829
21828 36827
21828 21829
21828 36825
21828 36827
21828 21829
21828 36825
21829 21830
21829 21830
21830 39492
21830 39492
21832 21833
21832 21853
21832 21833
21832 21853
21832 137638
21832 137638
21833 21834
21833 21845
21833 21834
21833 21845
21835 21836
21835 24101
21835 21836
21835 24101
21836 21838
21836 21965
21836 21967
21836 21838
21836 21965
21836 21967
21837 21838
21837 21949
21837 21838
21837 21949
21838 21947
21838 21947
21839 21957
21839 21840
21839 21841
21839 21957
21839 21840
21839 21841
21840 21844
21840 21958
21840 21844
21840 21958
21841 21842
21841 22068
21841 21842
21841 22068
21842 21843
21842 22067
21842 21843
21842 22067
21843 21844
21843 21844
21843 39526
21843 39526
21845 21875
21845 21876
21845 21846
21845 21875
21845 21876
21845 21846
21846 21847
21846 21876
21846 21847
21846 21876
21847 21848
21847 21848
21849 21850
21849 21850
21850 21851
21850 21851
21852 21853
21852 21853
21852 21872
21852 137639
21852 21872
21852 137639
21853 137490
21853 137490
21854 21855
21854 21872
21854 21855
21854 21872
21854 22282
21854 139770
21854 22282
21854 139770
21855 21856
21855 21856
21855 22282
21855 22282
21856 21857
21856 22311
21856 21857
21856 22311
21857 21858
21857 21859
21857 21858
21857 21859
21859 21860
21859 21860
21860 22311
21860 21861
21860 22311
21860 21861
21861 21862
21861 22300
21861 22301
21861 21862
21861 22300
21861 22301
21862 21863
21862 22300
21862 22305
21862 22300
21862 21863
21862 22305
21863 21864
21863 22306
21863 22307
21863 21864
21863 22306
21863 22307
21864 21866
21864 21865
21864 21866
21864 21865
21866 21867
21866 21867
21868 21869
21868 21869
21869 41866
21869 21870
21869 41866
21869 41867
21869 21870
21869 41867
21870 21872
21870 21871
21870 21872
21870 21871
21872 137639
21872 137639
21875 21899
21875 22097
21875 21899
21875 22097
21876 21884
21876 21884
21877 21878
21877 36556
21877 21878
21877 36556
21878 21879
21878 36555
21878 21879
21878 36555
21879 21880
21879 22320
21879 21880
21879 21962
21879 22320
21879 21962
21880 21881
21880 21964
21880 21881
21880 21964
21881 21939
21881 21939
21884 21899
21884 21899
21886 21887
21886 21887
21887 21888
21887 21888
21892 21943
21892 21943
21892 21944
21892 21944
21893 21894
21893 21894
21894 21895
21894 21895
21894 21900
21894 21900
21895 21899
21895 22096
21895 21899
21895 22096
21896 21897
21896 21897
21896 21900
21896 21900
21899 21900
21899 21900
21902 21903
21902 21903
21903 21905
21903 21905
21905 42879
21905 42879
21906 21907
21906 21913
21906 21916
21906 42356
21906 21907
21906 21913
21906 21916
21906 42356
21907 31944
21907 21908
21907 21941
21907 21908
21907 21941
21907 31944
21908 21909
21908 21909
21908 21940
21908 21940
21909 21910
21909 21910
21910 21922
21910 21911
21910 21922
21910 21911
21911 21912
21911 42871
21911 21912
21911 42871
21912 21913
21912 21913
21912 38949
21912 38949
21913 38941
21913 38941
21914 21915
21914 21916
21914 42356
21914 21915
21914 21916
21914 42356
21914 42866
21914 42866
21915 21918
21915 42865
21915 21918
21915 42865
21916 21919
21916 21917
21916 21919
21916 21917
21917 21918
21917 21918
21917 38932
21917 38932
21918 40593
21918 38930
21918 40593
21918 38930
21919 21920
21919 21923
21919 21923
21919 21920
21920 21921
21920 38950
21920 42873
21920 21921
21920 38950
21920 42873
21921 21922
21921 42871
21921 21922
21921 42871
21921 42873
21921 42873
21923 38928
21923 42876
21923 38928
21923 42876
21924 21931
21924 21931
21925 21926
21925 21927
21925 42363
21925 21926
21925 21927
21925 42363
21926 22099
21926 21927
21926 22099
21926 21927
21927 22098
21927 22098
21927 38012
21927 38012
21929 21930
21929 21930
21930 21931
21930 21931
21932 21933
21932 21938
21932 21933
21932 21938
21933 21938
21933 21938
21935 21943
21935 21943
21936 21937
21936 39589
21936 21937
21936 39589
21937 21938
21937 21938
21937 21948
21937 21951
21937 21948
21937 21951
21940 21941
21940 21941
21942 21946
21942 21943
21942 21944
21942 21946
21942 21943
21942 21944
21944 21945
21944 21945
21945 21946
21945 21949
21945 21946
21945 21949
21946 21948
21946 21948
21947 21949
21947 21948
21947 21949
21947 21950
21947 21948
21947 21950
21948 21950
21948 21950
21950 21951
21950 21951
21950 21966
21950 21966
21951 37157
21951 37157
21952 21953
21952 21956
21952 24097
21952 21953
21952 21956
21952 24097
21953 21954
21953 32976
21953 21954
21953 32976
21954 21955
21954 21955
21955 21956
21955 21956
21955 32964
21955 32964
21956 24098
21956 24098
21957 32976
21957 32976
21958 21959
21958 39531
21958 21959
21958 39531
21959 21960
21959 21960
21959 39529
21959 39529
21960 21961
21960 39527
21960 21961
21960 39527
21962 21963
21962 21968
21962 41469
21962 21963
21962 41469
21962 21968
21963 21965
21963 21964
21963 21964
21963 21965
21963 43118
21963 43118
21964 40865
21964 40865
21965 21966
21965 21968
21965 21966
21965 21968
21966 37146
21966 37146
21967 21968
21967 42249
21967 21968
21967 42249
21968 42245
21968 42245
21969 21970
21969 21970
21971 21977
21971 21972
21971 21977
21971 22180
21971 21972
21971 22180
21972 21973
21972 22026
21972 21973
21972 22026
21973 21974
21973 21999
21973 22012
21973 21974
21973 21999
21973 22012
21974 21975
21974 21998
21974 21975
21974 21998
21975 21976
21975 21976
21976 21977
21976 21983
21976 21977
21976 21983
21977 21982
21977 21982
21978 36581
21978 21981
21978 36581
21978 21981
21979 21980
21979 21980
21980 21981
21980 21981
21980 36561
21980 36561
21981 36565
21981 37989
21981 37989
21981 36565
21982 38825
21982 38825
21983 36568
21983 36568
21984 21985
21984 21986
21984 32985
21984 21985
21984 21986
21984 32985
21985 21992
21985 33135
21985 21992
21985 33135
21986 21987
21986 32992
21986 21987
21986 32992
21987 21988
21987 21997
21987 21988
21987 21997
21988 21989
21988 36846
21988 21989
21988 36846
21989 21990
21989 36848
21989 21990
21989 36848
21990 21991
21990 36850
21990 21991
21990 36850
21991 21992
21991 21992
21991 36852
21991 36852
21992 33136
21992 33200
21992 33136
21992 33200
21993 32992
21993 21997
21993 21994
21993 21997
21993 32992
21993 21994
21994 21995
21994 21996
21994 21995
21994 21996
21996 21997
21996 21997
21996 32991
21996 32991
21998 21999
21998 21999
21998 22002
21998 22002
21999 22000
21999 22000
22000 22001
22000 22015
22000 22001
22000 22015
22001 22002
22001 22002
22001 24104
22001 24104
22002 36571
22002 36571
22003 41460
22003 41460
22004 22005
22004 22011
22004 33407
22004 33408
22004 22005
22004 22011
22004 33407
22004 33408
22005 22006
22005 33417
22005 22006
22005 33417
22006 22007
22006 33610
22006 22007
22006 33610
22007 22008
22007 22008
22008 22009
22008 33422
22008 22009
22008 33422
22009 22010
22009 22010
22010 36863
22010 22011
22010 22011
22010 36863
22011 33409
22011 33409
22012 22013
22012 22024
22012 24109
22012 22013
22012 22024
22012 24109
22013 22014
22013 24108
22013 22014
22013 24108
22014 22015
22014 22015
22014 24107
22014 24107
22015 24106
22015 24106
22016 22180
22016 22017
22016 22018
22016 22180
22016 22186
22016 22017
22016 22018
22016 22186
22017 22026
22017 22026
22017 22028
22017 22028
22018 22019
22018 22080
22018 22019
22018 22080
22019 22020
22019 22021
22019 22020
22019 22021
22021 22022
22021 22023
22021 22022
22021 22023
22023 22024
22023 22024
22023 22085
22023 22085
22024 22025
22024 22087
22024 22025
22024 22087
22026 22027
22026 22027
22029 22030
22029 22035
22029 33181
22029 33189
22029 22030
22029 22035
22029 33189
22029 33181
22030 22031
22030 39581
22030 22031
22030 39581
22031 22032
22031 33015
22031 22032
22031 33015
22032 22033
22032 33033
22032 22033
22032 33033
22033 22034
22033 22034
22034 22035
22034 22035
22034 33034
22034 33036
22034 33034
22034 33036
22035 33131
22035 33131
22036 29382
22036 22037
22036 22038
22036 29355
22036 29382
22036 22037
22036 22038
22036 29355
22037 22049
22037 29341
22037 29343
22037 22049
22037 29341
22037 29343
22038 22039
22038 29344
22038 22039
22038 29344
22039 22040
22039 22041
22039 22040
22039 22041
22041 22042
22041 29354
22041 22042
22041 29354
22042 22043
22042 29353
22042 22043
22042 29353
22043 22044
22043 31716
22043 22044
22043 31716
22044 22045
22044 29339
22044 31623
22044 22045
22044 29339
22044 31623
22045 22046
22045 29335
22045 29336
22045 22046
22045 29335
22045 29336
22046 22047
22046 29200
22046 29335
22046 29335
22046 22047
22046 29200
22047 22048
22047 29200
22047 29200
22047 22048
22048 22049
22048 29200
22048 22049
22048 29200
22048 29329
22048 29329
22049 29329
22049 29341
22049 29341
22049 29329
22050 22051
22050 39539
22050 22051
22050 39539
22051 22052
22051 39544
22051 22052
22051 39544
22052 22053
22052 41342
22052 22053
22052 41342
22053 22054
22053 41345
22053 22054
22053 41345
22054 22055
22054 41346
22054 22055
22054 41346
22055 22056
22055 32865
22055 41348
22055 22056
22055 32865
22055 41348
22056 22057
22056 40495
22056 22057
22056 40495
22057 22058
22057 22058
22058 22059
22058 39521
22058 22059
22058 39521
22059 22060
22059 39520
22059 22060
22059 39520
22060 22061
22060 22062
22060 22061
22060 22062
22062 22063
22062 39519
22062 22063
22062 39519
22063 22064
22063 39518
22063 22064
22063 39518
22064 22065
22064 39517
22064 22065
22064 39517
22065 22066
22065 39516
22065 22066
22065 39516
22066 22067
22066 22067
22066 39515
22066 39515
22067 39514
22067 39514
1594931 1610775
1594931 1610775
1594925 1594926
1594925 1603363
1594925 1594926
1594925 1603363
1594926 1594927
1594926 1603363
1594926 1603363
1594926 1594927
1594927 1594928
1594927 1594928
1594928 1594929
1594928 1594929
1594929 1594930
1594929 1594930
1594930 1602033
1594930 1602033
22069 36860
22069 22070
22069 22079
22069 36860
22069 22070
22069 22079
22070 22071
22070 33421
22070 22071
22070 33421
22071 22072
22071 33402
22071 33419
22071 22072
22071 33402
22071 33419
22072 22073
22072 33403
22072 22073
22072 33403
22073 22074
22073 39620
22073 22074
22073 39620
22074 22075
22074 39619
22074 22075
22074 39619
22075 22076
22075 40514
22075 22076
22075 40514
22076 22077
22076 34838
22076 22077
22076 34838
22077 22078
22077 34837
22077 22078
22077 34837
22078 22079
22078 22079
22078 34837
22078 34837
22079 33398
22079 33398
22080 22081
22080 22191
22080 22081
22080 22191
22081 22082
22081 33133
22081 22082
22081 33133
1594954 1594955
1594954 1594956
1594954 1602186
1594954 1594955
1594954 1594956
1594954 1602186
1594955 1594956
1594955 1602036
1594955 1602187
1594955 1610393
1594955 1594956
1594955 1602187
1594955 1610393
1594955 1602036
1594956 1610394
1594956 1610394
22084 22085
22084 22085
22084 22088
22084 22088
22089 41850
22089 41850
22090 22091
22090 38759
22090 41815
22090 22091
22090 38759
22090 41815
22091 22092
22091 38758
22091 22092
22091 38758
22094 38441
22094 38441
22093 22094
22093 22094
22093 38442
22093 38442
22103 22104
22103 38004
22103 22104
22103 38004
22098 22151
22098 22151
22100 22101
22100 39718
22100 22101
22100 39718
22101 33646
22101 22102
22101 22102
22101 33646
22102 33646
22102 33646
22104 22106
22104 22109
22104 22106
22104 22109
22105 22106
22105 22106
22106 22109
22106 22109
22107 22108
22107 22113
22107 22113
22107 22108
22108 22113
22108 22109
22108 22109
22108 22111
22108 22112
22108 22113
22108 22112
22108 22111
22110 22112
22110 22111
22110 22111
22110 22112
22110 38015
22110 38015
22111 22155
22111 22155
22117 22118
22117 22223
22117 22118
22117 22223
22118 22119
22118 22223
22118 22223
22118 22119
22119 22120
22119 38005
22119 22120
22119 38005
22120 22121
22120 38007
22120 22121
22120 38007
22112 38021
22112 38021
22114 22115
22114 22116
22114 36588
22114 38027
22114 22115
22114 22116
22114 38027
22114 36588
22115 22123
22115 38029
22115 22123
22115 38029
22116 22117
22116 36587
22116 22117
22116 36587
1594981 1594984
1594981 1594984
1594983 1594984
1594983 1610675
1594983 1594984
1594983 1610675
1594984 1594985
1594984 1594985
1594984 1607296
1594984 1607296
1594985 1607297
1594985 1607297
22123 38009
22123 38009
22124 22125
22124 22128
22124 22145
22124 22125
22124 22128
22124 22145
22125 22126
22125 36577
22125 22126
22125 36577
22126 22127
22126 22127
22135 22136
22135 22144
22135 41372
22135 22136
22135 22144
22135 41372
22136 22137
22136 22137
22136 41371
22136 41371
22128 22147
22128 22147
22129 38021
22129 22130
22129 22137
22129 38021
22129 22130
22129 22137
22130 22131
22130 38032
22130 22131
22130 38032
22133 22134
22133 38011
22133 22134
22133 38011
22134 22135
22134 22138
22134 22135
22134 22138
22137 41370
22137 41370
22143 22144
22143 22144
22143 41374
22143 41374
22144 41373
22144 41373
22139 38005
22139 22140
22139 38005
22139 22140
22140 36582
22140 22141
22140 36582
22140 37994
22140 22141
22140 37994
22141 22142
22141 37993
22141 22142
22141 37993
22142 22143
22142 38003
22142 22143
22142 38003
22145 22146
22145 36574
22145 40523
22145 22146
22145 36574
22145 40523
22146 22149
22146 22150
22146 38040
22146 22149
22146 22150
22146 38040
22147 22148
22147 38024
22147 22148
22147 38024
22148 22149
22148 22149
22148 38023
22148 38023
22149 22192
22149 22192
22150 22151
22150 22151
22150 22152
22150 22243
22150 22152
22150 22243
22151 22244
22151 22244
22152 22153
22152 22193
22152 22153
22152 22193
22157 22158
22157 36558
22157 22158
22157 36558
22158 36559
22158 36559
22153 22154
22153 38037
22153 22154
22153 38037
22154 22155
22154 22155
22154 38013
22154 38013
22155 38016
22155 38016
22159 22160
22159 22174
22159 22246
22159 22160
22159 22246
22159 22174
22160 22248
22160 22847
22160 22847
22160 22248
22161 22162
22161 22163
22161 22247
22161 22162
22161 22163
22161 22247
22162 22166
22162 31433
22162 22166
22162 31433
22163 22164
22163 22250
22163 29833
22163 22164
22163 22250
22163 29833
22167 36561
22167 22168
22167 22169
22167 36561
22167 22168
22167 22169
22168 22169
22168 36560
22168 22169
22168 36560
22164 22165
22164 41028
22164 22165
22164 41028
22165 22166
22165 22166
22165 22265
22165 22265
22166 22263
22166 38061
22166 22263
22166 38061
22169 36565
22169 36565
22169 36566
22169 36566
22170 22171
22170 22171
22170 22173
22170 22182
22170 22173
22170 22182
22171 22172
22171 22172
22172 22173
22172 22173
22172 38824
22172 38824
22174 41459
22174 22175
22174 22176
22174 41459
22174 22175
22174 22176
22175 22246
22175 22177
22175 22246
22175 22177
22176 22177
22176 22249
22176 41458
22176 22177
22176 22249
22176 41458
22177 22249
22177 22249
22178 22179
22178 36857
22178 22179
22178 36857
22179 22180
22179 22180
22179 39610
22179 39610
22180 22219
22180 22219
22181 22182
22181 22182
22181 22183
22181 22183
22183 38825
22183 22184
22183 38825
22183 22184
22184 22185
22184 22185
22182 22185
22182 22224
22182 22185
22182 22224
22186 22187
22186 22188
22186 22187
22186 22188
22185 22225
22185 22225
22188 22189
22188 22216
22188 22218
22188 22189
22188 22216
22188 22218
22189 22191
22189 22190
22189 22191
22189 22190
22191 33230
22191 33230
22192 22193
22192 22193
22193 38036
22193 38036
22194 22195
22194 22196
22194 36859
22194 22195
22194 22196
22194 36859
22195 36854
22195 22203
22195 36854
22195 22203
22196 22197
22196 22197
22197 36859
22197 22198
22197 36859
22197 22198
22198 22199
22198 42715
22198 22199
22198 42715
22199 22200
22199 39616
22199 22200
22199 39616
22200 22201
22200 22201
22201 22202
22201 39614
22201 22202
22201 39614
22202 22203
22202 22203
22202 39612
22202 39612
22203 36855
22203 36855
22204 22205
22204 22206
22204 34843
22204 22205
22204 22206
22204 34843
22205 39616
22205 22221
22205 39616
22205 22221
22206 22207
22206 33219
22206 34842
22206 22207
22206 33219
22206 34842
22207 22208
22207 33217
22207 22208
22207 33217
22208 22209
22208 33216
22208 22209
22208 33216
22209 33131
22209 22210
22209 33131
22209 33211
22209 22210
22209 33211
22210 22211
22210 33141
22210 22211
22210 33141
22211 22212
22211 33222
22211 33227
22211 22212
22211 33222
22211 33227
22212 22213
22212 22213
22213 22214
22213 22214
22214 22215
22214 33224
22214 22215
22214 33224
22216 22217
22216 22217
22215 22216
22215 22216
22219 22220
22219 39611
22219 22220
22219 39611
22220 22221
22220 22221
22220 39613
22220 39613
22221 22222
22221 22222
22223 36585
22223 36585
22224 22225
22224 22230
22224 22225
22224 22230
22225 22230
22225 22230
22226 41450
22226 22227
22226 22228
22226 41450
22226 22227
22226 22228
22227 41447
22227 22230
22227 22230
22227 41447
22227 41451
22227 41451
22228 22229
22228 41452
22228 22229
22228 41452
22229 41453
22229 41453
22231 22232
22231 22233
22231 22255
22231 22232
22231 22233
22231 22255
22232 22235
22232 22241
22232 22235
22232 22241
22233 38040
22233 22234
22233 38040
22233 22234
22234 22235
22234 22235
22235 22243
22235 22243
22236 22237
22236 22238
22236 22239
22236 22254
22236 22237
22236 22238
22236 22239
22236 22254
22237 22245
22237 22261
22237 40550
22237 22245
22237 22261
22237 40550
22239 22241
22239 22240
22239 22241
22239 22240
22241 22242
22241 22242
22243 38039
22243 38039
22244 38012
22244 22245
22244 38012
22244 22245
22245 22309
22245 22309
22246 22248
22246 22248
22247 22248
22247 22248
22249 29832
22249 22250
22249 22250
22249 29832
22250 29832
22250 29832
22252 22395
22252 22395
22254 22255
22254 22255
22254 22262
22254 22262
22255 40556
22255 40557
22255 40556
22255 40557
22256 22257
22256 22258
22256 40512
22256 22257
22256 22258
22256 40512
22257 22259
22257 22267
22257 40531
22257 22259
22257 40531
22257 22267
22258 22259
22258 40513
22258 22259
22258 40513
22259 40530
22259 40533
22259 40530
22259 40533
22260 22261
22260 22262
22260 22261
22260 22262
22260 40818
22260 40818
22261 40540
22261 40540
22262 41367
22262 41367
22263 22264
22263 31647
22263 22264
22263 31647
22264 22267
22264 22267
22264 22268
22264 22270
22264 22268
22264 22270
22265 22266
22265 39747
22265 22266
22265 39747
22266 40512
22266 22267
22266 22267
22266 40512
22267 22309
22267 22309
22268 22269
22268 31646
22268 40680
22268 22269
22268 31646
22268 40680
22269 22270
22269 22270
22269 22302
22269 22303
22269 22303
22269 22302
22270 22308
22270 22308
22271 22272
22271 22358
22271 22272
22271 22273
22271 22358
22271 22273
22272 22273
22272 22287
22272 22273
22272 22287
22273 22288
22273 22354
22273 22288
22273 22354
22274 22275
22274 22281
22274 36026
22274 22275
22274 22281
22274 36026
22275 22276
22275 36018
22275 22276
22275 36018
22276 22277
22276 22278
22276 22277
22276 22278
22278 22446
22278 22279
22278 22446
22278 22279
22279 22280
22279 22455
22279 22280
22279 22455
22280 22281
22280 22281
22280 22289
22280 22460
22280 22289
22280 22460
22281 22285
22281 22285
22281 22438
22281 22438
22282 40690
22282 139771
22282 40690
22282 139771
22283 22284
22283 22284
22284 40699
22284 40699
22285 22286
22285 22286
22286 22438
22286 139815
22286 22438
22286 139815
22287 22288
22287 40699
22287 22288
22287 40699
22288 22387
22288 40699
22288 40699
22288 22387
22289 22290
22289 22291
22289 22292
22289 22290
22289 22291
22289 22292
22292 22293
22292 22462
22292 38051
22292 22293
22292 22462
22292 38051
22293 22294
22293 22295
22293 22294
22293 22295
22295 22296
22295 22296
22296 22297
22296 22339
22296 22297
22296 22339
22297 22298
22297 22339
22297 22339
22297 22298
22299 40690
22299 139773
22299 40690
22299 139773
22300 22301
22300 22304
22300 22301
22300 22304
22301 22302
22301 22312
22301 22302
22301 22312
22302 22303
22302 22303
22302 22310
22302 22310
22303 22304
22303 22304
22304 22305
22304 22308
22304 22305
22304 22308
22305 22306
22305 22306
22306 22307
22306 22308
22306 22307
22306 22308
22307 22308
22307 22309
22307 22309
22307 22308
22310 22311
22310 22311
22310 22327
22310 22328
22310 22328
22310 22327
22311 22327
22311 22327
22313 22314
22313 22314
22313 22315
22313 22315
22314 22317
22314 22317
22315 22316
22315 22419
22315 22471
22315 22316
22315 22419
22315 22471
22316 22317
22316 22317
22316 22420
22316 40684
22316 22420
22316 40684
22317 36643
22317 36643
22318 22319
22318 42245
22318 42245
22318 22319
22319 22320
22319 41469
22319 22320
22319 41467
22319 41469
22319 41467
22321 22322
22321 22353
22321 22322
22321 22353
22322 22323
22322 22350
22322 22323
22322 22350
22323 22324
22323 22340
22323 22324
22323 22340
22324 22325
22324 22325
22325 22327
22325 22327
22326 22328
22326 22327
22326 22327
22326 22328
22326 22333
22326 22334
22326 22333
22326 22334
22328 22335
22328 22335
22329 22330
22329 22330
22329 22331
22329 22375
22329 22331
22329 22375
22330 22351
22330 22351
22331 22332
22331 22344
22331 22346
22331 22332
22331 22346
22331 22344
22332 22333
22332 22333
22333 22349
22333 22349
22334 22335
22334 40678
22334 22335
22334 40678
22335 40680
22335 40680
22336 31433
22336 22337
22336 22338
22336 31433
22336 22337
22336 22338
22337 22338
22337 22362
22337 33495
22337 22338
22337 33495
22337 22362
22338 31434
22338 38058
22338 31434
22338 38058
22340 22350
22340 22352
22340 22350
22340 22352
22343 22393
22343 22344
22343 22344
22343 22345
22343 22393
22343 22345
22344 22386
22344 22389
22344 22386
22344 22389
22345 22346
22345 22346
22345 22348
22345 22348
22346 22347
22346 22347
22347 22348
22347 22348
22348 22349
22348 22349
22350 22353
22350 22353
22351 22352
22351 22352
22352 22353
22352 22353
22352 22355
22352 22355
22354 22355
22354 22373
22354 22382
22354 22355
22354 22373
22354 22382
22355 22356
22355 22356
22356 22357
22356 22357
22357 22358
22357 22358
22359 22362
22359 38058
22359 22360
22359 22362
22359 38058
22359 40685
22359 22360
22359 40685
22360 22361
22360 22367
22360 22371
22360 22361
22360 22367
22360 22371
22361 33495
22361 22362
22361 22362
22361 22368
22361 33495
22361 22368
22362 38058
22362 38058
22367 22368
22367 22369
22367 34836
22367 22368
22367 22369
22367 34836
22368 33494
22368 34847
22368 33494
22368 34847
22369 22370
22369 22422
22369 22423
22369 22370
22369 22423
22369 22422
22370 22420
22370 22371
22370 22371
22370 22420
22370 40681
22370 40681
22371 40685
22371 40685
22373 22374
22373 22384
22373 22385
22373 22374
22373 22384
22373 22385
22374 22375
22374 22375
22374 22376
22374 22376
22375 22377
22375 22377
22376 22377
22376 22378
22376 22377
22376 22378
22377 22379
22377 22379
22378 22386
22378 22379
22378 22386
22378 22379
22380 22393
22380 22393
22381 25705
22381 25705
22382 22383
22382 22388
22382 22383
22382 22388
22383 22384
22383 22384
22383 22391
22383 22391
22384 22385
22384 22385
22385 22386
22385 22386
22385 22390
22385 22390
22386 22390
22386 22390
22387 22388
22387 22388
22388 22498
22388 22498
22389 22390
22389 22392
22389 22390
22389 22392
22390 22391
22390 22391
22391 22392
22391 22392
22392 22393
22392 22393
22392 22497
22392 22497
22394 22396
22394 22395
22394 22395
22394 22396
22394 31672
22394 31672
22395 22398
22395 22398
22396 22401
22396 22401
22414 22415
22414 22594
22414 22595
22414 22415
22414 22594
22414 22595
22415 22416
22415 22476
22415 22416
22415 22476
22416 22417
22416 22475
22416 22417
22416 22475
22417 22418
22417 22418
22417 22473
22417 22473
22418 22472
22418 22472
1593602 1607300
1593602 1607301
1593602 1607300
1593602 1607301
22419 22420
22419 22422
22419 22426
22419 22420
22419 22422
22419 22426
22421 22423
22421 22422
22421 22422
22421 22423
22421 34870
22421 34893
22421 34870
22421 34893
22422 34885
22422 34885
1593603 1593604
1593603 1593609
1593603 1598739
1593603 1593604
1593603 1593609
1593603 1598739
22423 34836
22423 34836
22424 22426
22424 22425
22424 22426
22424 22883
22424 35130
22424 22425
22424 22883
22424 35130
22425 22437
22425 22884
22425 22437
22425 22884
22426 22427
22426 34885
22426 34885
22426 22427
22427 22428
22427 22496
22427 22428
22427 22496
22428 22429
22428 22429
22429 22496
22429 22430
22429 22496
22429 22430
1593604 1593605
1593604 1598770
1593604 1593605
1593604 1598770
22430 22431
22430 35110
22430 22431
22430 35110
1593605 1593606
1593605 1598769
1593605 1593606
1593605 1598769
22431 22432
22431 22434
22431 22432
22431 22434
22432 22433
22432 22433
22434 22435
22434 22650
22434 22659
22434 22435
22434 22659
22434 22650
22438 36027
22438 139816
22438 36027
22438 139816
1593606 1600108
1593606 1598772
1593606 1593607
1593606 1598772
1593606 1600108
1593606 1593607
22435 22436
22435 22546
22435 22797
22435 22436
22435 22546
22435 22797
22436 22437
22436 22437
22436 22823
22436 35135
22436 22823
22436 35135
22437 35135
22437 35135
22439 22440
22439 22445
22439 35108
22439 22440
22439 22445
22439 35108
1593607 1593609
1593607 1593608
1593607 1593609
1593607 1598763
1593607 1593608
1593607 1598763
22440 22441
22440 22469
22440 22441
22440 22469
22441 22442
22441 22492
22441 22442
22441 22492
22442 22443
22442 22590
22442 22443
22442 22590
22443 22444
22443 22602
22443 22444
22443 22602
22444 22445
22444 22445
22444 34959
22444 34959
22445 35108
22445 35108
22446 22447
22446 36010
22446 22447
22446 36010
22447 22448
22447 22448
22448 22449
22448 22449
22449 22450
22449 22907
22449 35989
22449 22450
22449 35989
22449 22907
22450 22451
22450 22907
22450 22907
22450 22451
22451 22452
22451 22902
22451 22904
22451 22452
22451 22902
22451 22904
22452 22453
22452 22906
22452 22453
22452 22906
1593610 1600092
1593610 1593611
1593610 1600092
1593610 1593611
22453 22454
22453 22905
22453 22906
22453 22906
22453 22454
22453 22905
22454 22455
22454 22455
22454 22457
22454 22457
22455 22456
22455 22456
22457 22458
22457 22458
22458 22459
22458 22736
22458 22459
22458 22736
22459 22460
22459 22460
22459 22660
22459 22735
22459 22660
22459 22735
22460 22461
22460 22461
22461 22462
22461 22462
22461 22661
22461 22661
22462 38051
22462 38051
22463 22469
22463 22464
22463 22469
22463 22470
22463 22464
22463 22470
22464 22471
22464 22465
22464 22471
22464 22465
22465 22466
22465 22467
22465 22466
22465 22467
22467 22468
22467 22468
22468 22469
22468 22469
22471 34883
22471 35105
22471 35107
22471 34883
22471 35105
22471 35107
1593614 1593615
1593614 1593616
1593614 1600188
1593614 1593615
1593614 1593616
1593614 1600188
22472 22473
22472 22473
22473 22474
22473 22474
22475 22476
22475 22476
22476 22477
22476 22477
22477 22478
22477 22585
22477 22478
22477 22585
22478 22479
22478 22479
22479 22480
22479 22481
22479 22480
22479 22481
22481 22482
22481 22483
22481 22482
22481 22483
22483 22484
22483 22485
22483 22484
22483 22485
22485 22486
22485 22587
22485 22486
22485 22587
22486 22492
22486 22487
22486 22492
22486 22487
22487 22488
22487 34954
22487 22488
22487 34954
22488 22489
22488 22490
22488 22489
22488 22490
22490 22491
22490 22491
22491 22492
22491 34954
22491 22492
22491 34954
22493 34883
22493 22494
22493 22495
22493 34883
22493 22494
22493 22495
22494 22496
22494 22495
22494 22496
22494 34884
22494 22495
22494 34884
22495 35105
22495 35104
22495 35105
22495 35104
22497 22502
22497 22498
22497 22498
22497 22502
22498 38051
22498 38051
22498 40693
22498 40693
22499 22500
22499 22661
22499 22713
22499 22742
22499 22500
22499 22661
22499 22713
22499 22742
22500 40693
22500 40693
22509 22510
22509 22510
22509 31119
22509 31119
22502 40693
22502 40693
22503 22504
22503 22505
22503 31117
22503 22504
22503 22505
22503 31117
22513 22514
22513 22523
22513 22514
22513 22523
22506 22507
22506 25022
22506 31124
22506 22507
22506 31124
22506 25022
22507 22508
22507 36767
22507 36771
22507 22508
22507 36771
22507 36767
22508 22509
22508 36767
22508 36767
22508 22509
22511 22512
22511 22518
22511 22540
22511 22512
22511 22518
22511 22540
22512 22513
22512 22541
22512 22513
22512 22541
1595377 1595378
1595377 1595379
1595377 1604516
1595377 1595378
1595377 1595379
1595377 1604516
22514 22515
22514 22515
22514 22524
22514 22524
22515 22516
22515 22516
1595379 1604516
1595379 1606299
1595379 1604516
1595379 1606299
22516 22517
22516 22619
22516 22517
22516 22619
22519 22520
22519 22521
22519 23037
22519 23038
22519 22520
22519 22521
22519 23037
22519 23038
22520 22522
22520 23035
22520 22522
22520 23035
22521 22522
22521 22992
22521 23036
22521 22522
22521 22992
22521 23036
22522 22989
22522 22989
22524 22555
22524 22555
22523 22524
22523 22556
22523 22524
22523 22556
1595395 1595396
1595395 1595396
1595396 1595442
1595396 1595442
1595396 1595443
1595396 1595443
22540 22541
22540 22557
22540 22541
22540 22557
22542 22543
22542 22543
22542 22544
22542 22785
22542 22544
22542 22785
22543 22761
22543 22761
22544 22545
22544 38068
22544 22545
22544 38068
22545 22546
22545 22546
22545 22798
22545 22798
22546 22547
22546 22547
22547 22548
22547 22658
22547 22548
22547 22658
22548 22549
22548 22656
22548 22549
22548 22656
22549 22550
22549 22647
22549 22550
22549 22647
22550 22551
22550 22642
22550 22551
22550 22642
22551 22552
22551 22597
22551 22552
22551 22597
22552 22553
22552 22560
22552 22553
22552 22560
22553 22554
22553 22554
22554 22560
22554 22560
22559 22621
22559 22621
22560 22561
22560 22561
22561 22562
22561 22598
22561 22562
22561 22598
22562 22563
22562 22563
22563 22564
22563 22596
22563 22564
22563 22596
22564 22565
22564 22589
22564 22565
22564 22589
22565 22566
22565 22594
22565 22566
22565 22594
22566 22595
22566 22595
22567 22568
22567 22583
22567 22584
22567 22568
22567 22583
22567 22584
22568 22569
22568 31756
22568 22569
22568 31756
22569 22570
22569 31755
22569 22570
22569 31755
22570 22571
22570 31651
22570 22571
22570 31651
22571 22572
22571 36791
22571 22572
22571 36791
22572 22573
22572 22574
22572 22573
22572 22574
22574 22575
22574 36790
22574 22575
22574 36790
22575 22576
22575 22577
22575 22576
22575 22577
22577 22578
22577 36789
22577 22578
22577 36789
22578 22579
22578 22580
22578 22579
22578 22580
1595442 1595444
1595442 1608791
1595442 1595444
1595442 1608791
1595444 1608791
1595444 1611337
1595444 1611405
1595444 1608791
1595444 1611337
1595444 1611405
22581 22583
22581 22582
22581 22583
22581 22582
22580 22581
22580 36788
22580 22581
22580 36788
22583 36787
22583 36787
22585 22586
22585 22589
22585 22589
22585 22586
22586 22587
22586 22587
22586 22588
22586 22588
22587 22590
22587 22590
22588 22589
22588 22589
22588 22592
22588 22592
22590 22591
22590 22591
22591 22593
22591 22601
22591 22593
22591 22601
22592 22596
22592 22593
22592 22596
22592 22593
22593 22599
22593 22599
22594 22595
22594 22595
22596 22599
22596 22599
22597 22598
22597 22600
22597 22598
22597 22600
22598 22599
22598 22599
22600 22601
22600 22601
22600 22644
22600 22644
22601 22602
22601 22602
22602 34961
22602 34961
22603 22605
22603 22604
22603 22605
22603 22608
22603 22610
22603 22604
22603 22610
22603 22608
22604 22606
22604 22606
22604 22627
22604 22627
22605 38055
22605 38055
22606 22623
22606 22623
22607 22608
22607 22608
22607 22609
22607 22617
22607 22609
22607 22617
22608 38056
22608 38056
22609 22616
22609 22610
22609 22610
22609 22616
22611 22612
22611 22613
22611 22620
22611 22612
22611 22613
22611 22620
22612 22618
22612 22636
22612 22618
22612 22636
22613 22614
22613 22614
22614 22619
22614 22619
22616 38055
22616 38055
22617 22618
22617 38064
22617 22618
22617 38064
22618 22634
22618 22634
22619 22620
22619 22620
22621 22622
22621 22622
22621 22630
22621 22630
22622 22623
22622 22623
22623 22625
22623 22625
22624 22625
22624 22625
22624 22626
22624 22633
22624 22626
22624 22633
22625 22628
22625 22628
22626 22627
22626 22627
22626 38063
22626 38063
22627 38057
22627 38057
22628 22629
22628 22632
22628 22629
22628 22632
22629 22631
22629 22707
22629 22708
22629 22631
22629 22707
22629 22708
22630 22631
22630 22710
22630 22631
22630 22710
22631 22717
22631 22717
22632 22636
22632 22633
22632 22633
22632 22636
22634 22635
22634 22635
22635 22636
22635 22636
22635 38062
22635 38062
22638 22639
22638 22722
22638 22750
22638 22639
22638 22722
22638 22750
22639 22640
22639 22640
22639 22724
22639 22724
22640 40772
22640 40772
22641 22642
22641 22642
22641 22643
22641 22655
22641 22643
22641 22655
22642 22652
22642 22652
22645 22646
22645 39736
22645 22646
22645 39736
22643 22644
22643 22644
22643 22654
22643 22654
22644 22653
22644 22653
22646 39741
22646 39741
22647 22648
22647 22657
22647 22648
22647 22657
22648 22656
22648 22649
22648 22656
22648 22649
22649 22659
22649 22650
22649 22650
22649 22659
22650 22651
22650 22651
22651 35110
22651 22652
22651 22652
22651 35110
22652 22653
22652 22653
22653 34959
22653 34959
22656 22657
22656 22657
22658 22659
22658 22659
22658 22782
22658 22782
22660 22661
22660 22713
22660 22743
22660 22661
22660 22713
22660 22743
22663 22681
22663 31632
22663 22681
22663 31632
22664 22665
22664 23810
22664 22665
22664 23810
22666 22667
22666 23809
22666 22667
22666 23809
22667 22668
22667 31750
22667 31815
22667 22668
22667 31750
22667 31815
22668 22669
22668 31749
22668 22669
22668 31749
22669 22670
22669 22670
22670 22671
22670 40419
22670 22671
22670 40419
22671 22672
22671 39380
22671 22672
22671 39380
22665 22666
22665 23775
22665 38996
22665 22666
22665 23775
22665 38996
22672 31632
22672 22673
22672 31632
22672 22673
22673 22674
22673 22679
22673 22674
22673 22679
22674 22675
22674 22677
22674 22675
22674 22677
22675 22677
22675 22677
22679 22680
22679 22680
22680 22681
22680 22681
22685 22686
22685 22686
22686 22687
22686 31712
22686 22687
22686 31712
22687 22688
22687 36801
22687 22688
22687 36801
22688 22689
22688 31705
22688 22689
22688 31705
22689 31755
22689 22690
22689 31706
22689 31755
22689 22690
22689 31706
22690 22691
22690 22692
22690 22691
22690 22692
22692 22693
22692 22862
22692 22693
22692 22862
22700 22701
22700 22702
22700 22715
22700 22721
22700 22701
22700 22702
22700 22715
22700 22721
22701 22703
22701 22714
22701 22703
22701 22714
22702 22703
22702 22704
22702 22703
22702 22704
22703 22704
22703 22704
22704 25704
22704 25704
22705 22706
22705 22712
22705 38066
22705 22706
22705 22712
22705 38066
22706 22707
22706 22707
22706 22764
22706 22774
22706 22764
22706 22774
22707 22762
22707 22762
22708 22709
22708 22717
22708 22717
22708 22709
22709 22710
22709 22710
22709 22716
22709 22716
22710 22711
22710 22711
22711 25705
22711 22712
22711 22712
22711 25705
22712 25704
22712 25704
22713 22743
22713 22743
22714 22715
22714 22715
22714 22725
22714 22725
22715 22719
22715 22719
22716 22717
22716 22717
22716 22718
22716 22718
22719 22725
22719 22720
22719 22725
22719 22720
22720 22721
22720 22721
22720 22732
22720 22732
22721 22732
22721 22732
22722 22723
22722 22751
22722 22723
22722 22751
22723 22750
22723 22724
22723 22724
22723 22750
22723 22927
22723 22927
22724 22758
22724 22758
22725 25703
22725 25703
22726 22727
22726 22728
22726 22929
22726 22997
22726 22727
22726 22728
22726 22929
22726 22997
22727 22731
22727 22913
22727 22731
22727 22913
22728 22729
22728 22933
22728 22729
22728 22933
22729 22750
22729 22730
22729 22750
22729 22730
22730 22731
22730 22731
22730 40764
22730 40764
22731 40764
22731 40764
22732 22741
22732 22741
22733 22907
22733 22735
22733 22734
22733 22735
22733 22907
22733 40762
22733 22734
22733 40762
22734 22902
22734 22738
22734 22902
22734 22903
22734 22738
22734 22903
22735 22736
22735 22736
22735 40762
22735 40762
22736 22737
22736 22737
22737 22904
22737 22905
22737 22738
22737 22738
22737 22904
22737 22905
22738 22903
22738 22903
22739 22741
22739 22740
22739 22741
22739 22740
22740 22743
22740 22743
22740 22749
22740 22749
22741 22742
22741 22742
22742 25703
22742 25703
22744 22745
22744 22746
22744 22775
22744 22776
22744 22745
22744 22746
22744 22775
22744 22776
22745 22749
22745 22749
22745 22759
22745 22759
22746 22747
22746 27923
22746 27925
22746 22747
22746 27923
22746 27925
22747 22748
22747 22748
22748 22749
22748 22749
22748 22773
22748 22773
22750 22922
22750 22922
22752 22753
22752 22754
22752 22859
22752 22753
22752 22754
22752 22859
22753 22757
22753 22926
22753 22757
22753 22926
22754 22755
22754 22849
22754 22854
22754 22755
22754 22849
22754 22854
22755 22756
22755 22857
22755 22756
22755 22857
22756 22775
22756 22759
22756 22757
22756 22757
22756 22759
22756 22775
22757 22758
22757 22758
22758 22760
22758 22760
22759 22760
22759 22760
22760 40772
22760 40772
22761 22762
22761 22767
22761 22762
22761 22767
22762 22763
22762 22763
22763 22764
22763 22764
22763 22766
22763 22766
22764 22773
22764 22773
22765 22767
22765 22766
22765 22766
22765 22767
22765 22781
22765 22781
22766 22778
22766 22778
22767 22780
22767 22780
22768 22769
22768 22770
22768 22769
22768 22770
22769 22849
22769 22771
22769 22849
22769 22771
22770 22771
22770 22799
22770 22771
22770 22799
22771 22787
22771 22787
22772 22774
22772 22773
22772 22773
22772 22774
22772 22845
22772 22845
22774 38065
22774 38065
22775 22856
22775 27925
22775 27925
22775 22856
22777 22778
22777 22778
22777 22779
22777 22779
22778 27921
22778 27921
22779 22780
22779 22780
22780 22781
22780 22781
22783 22785
22783 22784
22783 22785
22783 22805
22783 22784
22783 22805
22784 22789
22784 22800
22784 22789
22784 22800
22785 22786
22785 38067
22785 22786
22785 38067
22786 22787
22786 22787
22787 22788
22787 22788
22788 22789
22788 22789
22788 22802
22788 22802
22789 22801
22789 22801
22790 22791
22790 22792
22790 22815
22790 22791
22790 22792
22790 22815
22791 22796
22791 42794
22791 22796
22791 42794
22792 22793
22792 22813
22792 22793
22792 22813
22793 22794
22793 22804
22793 22794
22793 22804
22794 22795
22794 22795
22795 22796
22795 22804
22795 22796
22795 22804
22796 22803
22796 22803
22797 22798
22797 22809
22797 22798
22797 22809
22798 22810
22798 22810
22799 22800
22799 22803
22799 22800
22799 22803
22800 22801
22800 22801
22801 22802
22801 22802
22803 22848
22803 22848
22804 22805
22804 22805
22805 38067
22805 38067
22806 22807
22806 22808
22806 22816
22806 22807
22806 22808
22806 22816
22807 22811
22807 22814
22807 22811
22807 22814
22808 22809
22808 22809
22808 22831
22808 22831
22809 22831
22809 22831
22810 22811
22810 22812
22810 22811
22810 22812
22812 22813
22812 22813
22813 22814
22813 22814
22814 22815
22814 22815
22815 22817
22815 22817
22816 22817
22816 22832
22816 22817
22816 22832
22817 22834
22817 22834
22818 22819
22818 22820
22818 22836
22818 22819
22818 22820
22818 22836
22819 22822
22819 22876
22819 22822
22819 22876
22820 22834
22820 22821
22820 22834
22820 22835
22820 22821
22820 22835
22821 22822
22821 22822
22821 22872
22821 22872
22822 22875
22822 22875
22823 22824
22823 22824
22824 22830
22824 35133
22824 22830
22824 35133
22825 22826
22825 22827
22825 22885
22825 22826
22825 22827
22825 22885
22826 22833
22826 35146
22826 22833
22826 35146
22827 22828
22827 35138
22827 22828
22827 35138
22828 22829
22828 22829
22829 22830
22829 35138
22829 22830
22829 35138
22830 22831
22830 22831
22832 22833
22832 22834
22832 22835
22832 22834
22832 22835
22832 22833
22833 22844
22833 22844
22835 22836
22835 22836
22836 22844
22836 22881
22836 22844
22836 22881
22837 22838
22837 22839
22837 22890
22837 22838
22837 22839
22837 22890
22838 22842
22838 22891
22838 22842
22838 22891
22839 22840
22839 22880
22839 22840
22839 22880
22840 22876
22840 22841
22840 22876
22840 22878
22840 22841
22840 22878
22841 22842
22841 22842
22841 22882
22841 22882
22842 22843
22842 22843
22844 22879
22844 22887
22844 22879
22844 22887
22845 22846
22845 22846
22846 38070
22846 38070
22847 41460
22847 41460
22848 22852
22848 22863
22848 22872
22848 22872
22848 22852
22848 22863
22849 22850
22849 22856
22849 22856
22849 22850
22850 22851
22850 22855
22850 22851
22850 22855
22851 22852
22851 22852
22851 22853
22851 22853
22852 22858
22852 22858
22853 22854
22853 22855
22853 22854
22853 22855
22854 22858
22854 22860
22854 22858
22854 22860
22856 27913
22856 27913
22858 22859
22858 22863
22858 22859
22858 22863
22859 22871
22859 22925
22859 22871
22859 22925
22863 22869
22863 22870
22863 22870
22863 22869
22864 22865
22864 22866
22864 22934
22864 22965
22864 22865
22864 22866
22864 22934
22864 22965
22865 22867
22865 22957
22865 22961
22865 22867
22865 22957
22865 22961
22866 22867
22866 22923
22866 22928
22866 22867
22866 22923
22866 22928
22867 22922
22867 22922
22867 22956
22867 22956
22868 22870
22868 22869
22868 22928
22868 22869
22868 22870
22868 22874
22868 22928
22868 22874
22869 22871
22869 22871
22870 22872
22870 22872
22870 22873
22870 22873
22871 22924
22871 22924
22872 22875
22872 22875
22873 22882
22873 22874
22873 22874
22873 22882
22873 22897
22873 22897
22874 22934
22874 22934
22874 22962
22874 22962
22875 22877
22875 22877
22876 22877
22876 22881
22876 22881
22876 22877
22877 22878
22877 22878
22878 22882
22878 22882
22879 22880
22879 22880
22879 35184
22879 35184
22880 22881
22880 22881
22883 22892
22883 22972
22883 22974
22883 22892
22883 22972
22883 22974
22884 22885
22884 22885
22885 22886
22885 22886
22886 22887
22886 22887
22887 35146
22887 22888
22887 35146
22887 22888
22888 35184
22888 22889
22888 35184
22888 22889
22889 22890
22889 22890
22890 35184
22890 35184
22891 22892
22891 22892
22892 22896
22892 22970
22892 22896
22892 22970
22894 31815
22894 31815
22896 22898
22896 22899
22896 22968
22896 22898
22896 22899
22896 22968
22897 22898
22897 22962
22897 22962
22897 22898
22898 22964
22898 22964
22899 22900
22899 22901
22899 22900
22899 22901
22902 22903
22902 22903
22903 22904
22903 22904
22904 22906
22904 22906
22905 22906
22905 22906
22908 22909
22908 22910
22908 22917
22908 22909
22908 22910
22908 22917
22909 22914
22909 35937
22909 22914
22909 35937
22910 22911
22910 22998
22910 22911
22910 22998
22911 22912
22911 22998
22911 22998
22911 22912
22912 22913
22912 22913
22913 22914
22913 22914
22914 40763
22914 40763
22915 22917
22915 22916
22915 22917
22915 22999
22915 22916
22915 22999
22916 22920
22916 23019
22916 22920
22916 23019
22917 22918
22917 22918
22918 22919
22918 22919
22919 35937
22919 22920
22919 22920
22919 35937
22920 35936
22920 40766
22920 35936
22920 40766
22922 22933
22922 22923
22922 22933
22922 22923
22923 22924
22923 22924
22924 22928
22924 22928
22928 22934
22928 22934
22929 22930
22929 22958
22929 23009
22929 22930
22929 22958
22929 23009
22930 22956
22930 22931
22930 22956
22930 22931
22931 22956
22931 22932
22931 22956
22931 22932
22932 22933
22932 22933
22934 22963
22934 22963
22935 22955
22935 38076
22935 42305
22935 22955
22935 38076
22935 42305
22936 22937
22936 22937
22937 22938
22937 23137
22937 22938
22937 23137
22938 22939
22938 23143
22938 22939
22938 23143
22939 22946
22939 22940
22939 22946
22939 22940
22940 22941
22940 22941
22941 22942
22941 22942
22942 22943
22942 22943
22943 22944
22943 22945
22943 22944
22943 22945
22946 22947
22946 22947
22947 22948
22947 40701
22947 22948
22947 40701
22948 22949
22948 22954
22948 22949
22948 22954
22949 22950
22949 22951
22949 22950
22949 22951
22951 22952
22951 22953
22951 22952
22951 22953
22952 22953
22952 22953
22953 22954
22953 22954
22954 22955
22954 22955
22955 38071
22955 38071
22956 22957
22956 22957
22957 22958
22957 22960
22957 22958
22957 22960
22958 22959
22958 22959
22959 23009
22959 22960
22959 22960
22959 23009
22959 23033
22959 23033
22960 22961
22960 22961
22960 22986
22960 22986
22961 22965
22961 22965
22961 22983
22961 22983
22962 22963
22962 22964
22962 22964
22962 22963
22963 22965
22963 22965
22963 22966
22963 22966
22964 22968
22964 22966
22964 22968
22964 22966
22965 22969
22965 22969
22966 22967
22966 22969
22966 22969
22966 22967
22967 22968
22967 22968
22967 22971
22967 22984
22967 22971
22967 22984
22968 22970
22968 22970
22969 22983
22969 22983
22969 22984
22969 22984
22970 22971
22970 22971
22971 22972
22971 22972
22971 22990
22971 22990
22972 22973
22972 22991
22972 22973
22972 22991
22973 22974
22973 22974
22973 22993
22973 23043
22973 22993
22973 23043
22974 23044
22974 23044
22976 31687
22976 31687
22983 22986
22983 22985
22983 22986
22983 22985
22984 22985
22984 22990
22984 22990
22984 22985
22985 22987
22985 22988
22985 22987
22985 22988
22986 23033
22986 22987
22986 23033
22986 22987
22987 22989
22987 22989
22987 23034
22987 23034
22988 22992
22988 22989
22988 22990
22988 22989
22988 22990
22988 22992
22989 23035
22989 23035
22990 22991
22990 22991
22991 22992
22991 22992
22992 22993
22992 22993
22993 23036
22993 23036
22993 23040
22993 23040
22994 22995
22994 22996
22994 23014
22994 22995
22994 22996
22994 23014
22995 23000
22995 23016
22995 23000
22995 23016
22996 22997
22996 22997
22996 23002
22996 23002
22997 23001
22997 23001
22998 22999
22998 22999
22999 23000
22999 23000
23000 23019
23000 23019
23002 23003
23002 23013
23002 23003
23002 23013
23003 23004
23003 23004
23004 23005
23004 23005
23005 23006
23005 23026
23005 23006
23005 23026
23006 23007
23006 23032
23006 23007
23006 23032
23007 23009
23007 23008
23007 23009
23007 23008
23009 23032
23009 23032
23010 23011
23010 23012
23010 23028
23010 23084
23010 23011
23010 23012
23010 23084
23010 23028
23011 23014
23011 23014
23011 23085
23011 23085
23012 23013
23012 23013
23012 23027
23012 23027
23013 23027
23013 23027
23014 23015
23014 23015
23015 23018
23015 38078
23015 23018
23015 38078
23016 23017
23016 23020
23016 23017
23016 23020
23017 23018
23017 23018
23017 38081
23017 38081
23018 38080
23018 38080
23019 23020
23019 23020
23020 38082
23020 38082
23021 23022
23021 23023
23021 23022
23021 23023
23022 23028
23022 23028
23022 23087
23022 23087
23023 23024
23023 23056
23023 23024
23023 23056
23024 23025
23024 23059
23024 23025
23024 23059
23025 23026
23025 23026
23025 23060
23025 23060
23026 23029
23026 23029
23027 23028
23027 23028
23029 23060
23029 23030
23029 23060
23029 23030
23030 23038
23030 23035
23030 23031
23030 23035
23030 23038
23030 23031
23031 23034
23031 23032
23031 23032
23031 23034
23032 23033
23032 23033
23033 23034
23033 23034
23034 23035
23034 23035
23036 23037
23036 23037
23036 23039
23036 23039
23037 23054
23037 23061
23037 23054
23037 23061
23038 23057
23038 23061
23038 23061
23038 23057
23039 23040
23039 23040
23039 23054
23039 23054
23040 23041
23040 23048
23040 23041
23040 23048
23041 23042
23041 23053
23041 23042
23041 23053
23042 23043
23042 23043
23042 41094
23042 41094
23043 23044
23043 23044
23044 35140
23044 35157
23044 35140
23044 35157
23045 23046
23045 23047
23045 35417
23045 35503
23045 23046
23045 23047
23045 35417
23045 35503
23046 23047
23046 23097
23046 23047
23046 23097
23047 23064
23047 23066
23047 23064
23047 23066
23048 23049
23048 23049
23049 35417
23049 23050
23049 35417
23049 35489
23049 23050
23049 35489
23050 23051
23050 35462
23050 35464
23050 23051
23050 35462
23050 35464
23051 23052
23051 23052
23052 23053
23052 41094
23052 23053
23052 41094
23054 23063
23054 23066
23054 23066
23054 23063
23055 23056
23055 23057
23055 23056
23055 23057
23055 23062
23055 23090
23055 23062
23055 23090
23056 23059
23056 23059
23057 23058
23057 36590
23057 23058
23057 36590
23058 23059
23058 23059
23060 36590
23060 36590
23061 23062
23061 23063
23061 23063
23061 23062
23062 23068
23062 23078
23062 23068
23062 23078
23063 23067
23063 23067
23064 23065
23064 23094
23064 23065
23064 23094
23065 23067
23065 23067
23065 23092
23065 23092
23067 23071
23067 23093
23067 23071
23067 23093
23068 23069
23068 23078
23068 23078
23068 23069
23069 23070
23069 23077
23069 23070
23069 23077
23070 23071
23070 23093
23070 23071
23070 23093
23072 35970
23072 23091
23072 23073
23072 23079
23072 23091
23072 35970
23072 23073
23072 23079
23073 23074
23073 38083
23073 23074
23073 38083
23074 23075
23074 23075
23075 23106
23075 23076
23075 23106
23075 23076
23076 23077
23076 23077
23076 23096
23076 23096
23077 23092
23077 23092
23077 23096
23077 23096
23078 23079
23078 23079
23079 23090
23079 23090
23080 23081
23080 23082
23080 23135
23080 23081
23080 23082
23080 23135
23081 23086
23081 23136
23081 23086
23081 23136
23082 23083
23082 23089
23082 23083
23082 23089
23083 23084
23083 23084
23084 23087
23084 23087
23085 23086
23085 41471
23085 23086
23085 41471
23086 23140
23086 23140
23087 23089
23087 23089
23088 23090
23088 23089
23088 23089
23088 23090
23088 23107
23088 23107
23090 23091
23090 23091
23091 23108
23091 23108
23092 23093
23092 23095
23092 23093
23092 23095
23094 23097
23094 23095
23094 23097
23094 23100
23094 23095
23094 23100
23095 23096
23095 23096
23095 23099
23095 23099
23096 23098
23096 23098
23097 23102
23097 23102
23098 23099
23098 23099
23098 23104
23098 28643
23098 23104
23098 28643
23099 23100
23099 23100
23099 23103
23099 23103
23100 23101
23100 23105
23100 23101
23100 23105
23101 23102
23101 23102
23101 35508
23101 35508
23102 35503
23102 35503
23102 35506
23102 35506
23103 23104
23103 23104
23103 23105
23103 23115
23103 23105
23103 23115
23104 23116
23104 23117
23104 23116
23104 23117
23105 35599
23105 35604
23105 35599
23105 35604
23106 23117
23106 23117
23107 23108
23107 23134
23107 23108
23107 23134
23108 23136
23108 23136
23108 23138
23108 23138
23109 23110
23109 23127
23109 35665
23109 23110
23109 23127
23109 35665
23110 23111
23110 35669
23110 23111
23110 35669
23111 23112
23111 23149
23111 23112
23111 23149
23112 23113
23112 35609
23112 23113
23112 35609
23113 23114
23113 35602
23113 23114
23113 35602
23114 23115
23114 23115
23114 35602
23114 35602
23115 23116
23115 35604
23115 23116
23115 35604
23117 28642
23117 28642
23118 23119
23118 23132
23118 23119
23118 23132
23119 23120
23119 23121
23119 23120
23119 23121
23121 23122
23121 23122
23122 23123
23122 23123
23123 23124
23123 23156
23123 23124
23123 23156
23124 23125
23124 23155
23124 23125
23124 23155
23125 23127
23125 23126
23125 23127
23125 23126
23127 35664
23127 35664
23128 23129
23128 23129
23129 23130
23129 23153
23129 23154
23129 23130
23129 23153
23129 23154
23130 23131
23130 38084
23130 23131
23130 38084
23131 23132
23131 23156
23131 23132
23131 23156
23132 23133
23132 23133
23136 23139
23136 23139
23137 23138
23137 23138
23140 23143
23140 23141
23140 23143
23140 23141
23141 23142
23141 23142
23142 23143
23142 23143
23144 23149
23144 23145
23144 23149
23144 39949
23144 23145
23144 39949
23145 23146
23145 35634
23145 23146
23145 35634
23146 23147
23146 35633
23146 23147
23146 35633
23147 23148
23147 23148
23148 23149
23148 23149
23148 35621
23148 35621
23149 39949
23149 39949
23150 23154
23150 23151
23150 23154
23150 23162
23150 23151
23150 23162
23151 23152
23151 23158
23151 23152
23151 23158
23152 23153
23152 23153
23152 23157
23152 23157
23154 23160
23154 23166
23154 23160
23154 23166
23155 23168
23155 23158
23155 23168
23155 23158
23156 23157
23156 23157
23157 38084
23157 38084
23158 23161
23158 23161
23159 23164
23159 23160
23159 23164
23159 23160
23160 23165
23160 23165
23161 23168
23161 23162
23161 23168
23161 23162
23162 35963
23162 23166
23162 35963
23162 23166
23163 23164
23163 23167
23163 23164
23163 23167
23164 23165
23164 23165
23165 35966
23165 23166
23165 23166
23165 35966
23166 35965
23166 35965
23167 35967
23167 35967
23168 35664
23168 35664
23170 32914
23170 23171
23170 32914
23170 23171
23171 23172
23171 23172
23172 23173
23172 32913
23172 23173
23172 32913
23173 23174
23173 39733
23173 23174
23173 39733
23174 23175
23174 43183
23174 23175
23174 43183
23175 23176
23175 23176
23176 33715
23176 33715
1596099 1596100
1596099 1596100
1596100 1596101
1596100 1597216
1596100 1596101
1596100 1597216
1596101 1596105
1596101 1596105
1596105 1597215
1596105 1597215
1596108 1596142
1596108 1596142
1596111 1596183
1596111 1596183
1596126 1596127
1596126 1596127
1596126 1596128
1596126 1596137
1596126 1610172
1596126 1596128
1596126 1596137
1596126 1610172
1596127 1596132
1596127 1596132
1596128 1596137
1596128 1596137
1596131 1596132
1596131 1596132
1596132 1606262
1596132 1606262
1596138 1596139
1596138 1596149
1596138 1607258
1596138 1596139
1596138 1596149
1596138 1607258
1596139 1596140
1596139 1596161
1596139 1596140
1596139 1596161
1596140 1596141
1596140 1596164
1596140 1596141
1596140 1596164
1596141 1596142
1596141 1596183
1596141 1596142
1596141 1596183
1596142 1596143
1596142 1596143
1596143 1596144
1596143 1596144
1596144 1596145
1596144 1596146
1596144 1596145
1596144 1596146
1596146 1596147
1596146 1597240
1596146 1596147
1596146 1597240
1596147 1597216
1596147 1596148
1596147 1597216
1596147 1596148
1596148 1596149
1596148 1596149
1596148 1610600
1596148 1610600
1596149 1607796
1596149 1607796
1596161 1596162
1596161 1597245
1596161 1596162
1596161 1597245
1596162 1596163
1596162 1596163
1596163 1596164
1596163 1596164
1596163 1596278
1596163 1596278
1596183 1596184
1596183 1596184
23398 23399
23398 23400
23398 25529
23398 25801
23398 23399
23398 23400
23398 25529
23398 25801
23399 23400
23399 25552
23399 23400
23399 25552
23400 25221
23400 25221
1596263 1597244
1596263 1597244
1596362 1596363
1596362 1597848
1596362 1610730
1596362 1596363
1596362 1597848
1596362 1610730
1596363 1597852
1596363 1610723
1596363 1597852
1596363 1610723
23774 23775
23774 23775
23774 23794
23774 23801
23774 23794
23774 23801
23775 23776
23775 23776
23776 23777
23776 23950
23776 23777
23776 23950
23777 23778
23777 31808
23777 23778
23777 31808
23778 23779
23778 23780
23778 31807
23778 23779
23778 23780
23778 31807
23788 23808
23788 23808
23793 23794
23793 23794
23794 23795
23794 23803
23794 23795
23794 23803
23801 23802
23801 23803
23801 23803
23801 23802
23808 23809
23808 23809
23808 31798
23808 31798
23809 31797
23809 31797
23810 23811
23810 23812
23810 39387
23810 23811
23810 23812
23810 39387
23811 23812
23811 41070
23811 23812
23811 41070
23812 39386
23812 39386
23813 23814
23813 23820
23813 23814
23813 23820
23814 23815
23814 31785
23814 23815
23814 31785
23815 23816
23815 43413
23815 43415
23815 23816
23815 43413
23815 43415
23816 23817
23816 43412
23816 23817
23816 43412
23817 23818
23817 23819
23817 23818
23817 23819
23819 23820
23819 23820
23819 43406
23819 43406
23820 43405
23820 43405
1596686 1597199
1596686 1596687
1596686 1597199
1596686 1604613
1596686 1596687
1596686 1604613
23825 23826
23825 23827
23825 23826
23825 23827
23826 43413
23826 23831
23826 43413
23826 23831
23827 23828
23827 43417
23827 23828
23827 43417
23828 23829
23828 23877
23828 23829
23828 23877
23829 23830
23829 23881
23829 23830
23829 23881
23830 23831
23830 23831
23830 43411
23830 43411
1596704 1596705
1596704 1596706
1596704 1596728
1596704 1596705
1596704 1596706
1596704 1596728
1596705 1596719
1596705 1596719
1596706 1596707
1596706 1596727
1596706 1598737
1596706 1596707
1596706 1596727
1596706 1598737
1596707 1596708
1596707 1596715
1596707 1598786
1596707 1596708
1596707 1596715
1596707 1598786
1596708 1596709
1596708 1596710
1596708 1596709
1596708 1596710
1596710 1596715
1596710 1596711
1596710 1596714
1596710 1596715
1596710 1596711
1596710 1596714
1596711 1596712
1596711 1596713
1596711 1596712
1596711 1596713
23848 23849
23848 23855
23848 23857
23848 23849
23848 23855
23848 23857
23849 23850
23849 23851
23849 23850
23849 23851
23851 23853
23851 23852
23851 23853
23851 23852
23853 23854
23853 23854
23854 23855
23854 23855
23854 38675
23854 38675
23855 23856
23855 23856
1596715 1596716
1596715 1598785
1596715 1596716
1596715 1598785
1596716 1596717
1596716 1596720
1596716 1610687
1596716 1596717
1596716 1596720
1596716 1610687
1596717 1596718
1596717 1596720
1596717 1596721
1596717 1596720
1596717 1596718
1596717 1596721
1596718 1596719
1596718 1596719
1596720 1598805
1596720 1607835
1596720 1598805
1596720 1607835
1596721 1596722
1596721 1607842
1596721 1596722
1596721 1607842
1596722 1596723
1596722 1596725
1596722 1607883
1596722 1596723
1596722 1607883
1596722 1596725
1596723 1596724
1596723 1596725
1596723 1596725
1596723 1596724
1596725 1596726
1596725 1607882
1596725 1596726
1596725 1607882
1596726 1596727
1596726 1596727
1596726 1610678
1596726 1610685
1596726 1610678
1596726 1610685
1596727 1598731
1596727 1607763
1596727 1598731
1596727 1607763
1596739 1596740
1596739 1596748
1596739 1596740
1596739 1596748
23877 23880
23877 23880
1596743 1596744
1596743 1596744
1596744 1596745
1596744 1598757
1596744 1608885
1596744 1596745
1596744 1608885
1596744 1598757
1596745 1596746
1596745 1608886
1596745 1596746
1596745 1608886
1596746 1596747
1596746 1598495
1596746 1596747
1596746 1598495
1596747 1596748
1596747 1596748
1596747 1598495
1596747 1598495
1596748 1596749
1596748 1596749
1596749 1596750
1596749 1596750
23881 43414
23881 43414
23880 23881
23880 23881
23896 23897
23896 39978
23896 23897
23896 39978
23897 23898
23897 23898
23897 39995
23897 39995
23898 40853
23898 40853
23940 38996
23940 23941
23940 23951
23940 38996
23940 43403
23940 23941
23940 23951
23940 43403
23941 23942
23941 31784
23941 23942
23941 31784
23942 23943
23942 23948
23942 23943
23942 23948
23943 23944
23943 23945
23943 23944
23943 23945
23945 23946
23945 23947
23945 23946
23945 23947
23948 23949
23948 31691
23948 33859
23948 23949
23948 31691
23948 33859
23949 23950
23949 23950
23949 31264
23949 31268
23949 31264
23949 31268
23950 23951
23950 23951
23951 38996
23951 38996
23958 23959
23958 23959
23958 30680
23958 30680
23959 30680
23959 30680
23960 23961
23960 23996
23960 23961
23960 23996
23961 23962
23961 23963
23961 23962
23961 23963
23963 23964
23963 23997
23963 31888
23963 23964
23963 23997
23963 31888
23964 23965
23964 23965
23964 33886
23964 33886
23965 23966
23965 23966
23996 23997
23996 34118
23996 37350
23996 23997
23996 34118
23996 37350
23997 33880
23997 33912
23997 33880
23997 33912
24018 24019
24018 24021
24018 33869
24018 24019
24018 24021
24018 33869
24019 24020
24019 33868
24019 24020
24019 33868
24020 24021
24020 24021
24020 39769
24020 39769
24076 24077
24076 36853
24076 24077
24076 36853
24077 24078
24077 24078
24078 24079
24078 24079
24079 24080
24079 24080
24080 24081
24080 24082
24080 24081
24080 24082
24082 24083
24082 24083
24087 24088
24087 24088
24088 24089
24088 24090
24088 24089
24088 24090
24090 24091
24090 24091
24091 24092
24091 24092
24092 24093
24092 24094
24092 24093
24092 24094
24094 24095
24094 24095
24095 24096
24095 24096
24096 24097
24096 24097
24096 39532
24096 39532
24097 32976
24097 32976
24098 24099
24098 24099
24098 32965
24098 32965
24099 24100
24099 32964
24099 32964
24099 24100
24101 24102
24101 43533
24101 24102
24101 43533
24102 24103
24102 43540
24102 24103
24102 43540
24103 24104
24103 24104
24103 43541
24103 43541
24104 24105
24104 42243
24104 24105
24104 42243
1596988 1596989
1596988 1603575
1596988 1606296
1596988 1596989
1596988 1603575
1596988 1606296
1596989 1603533
1596989 1603534
1596989 1603533
1596989 1603534
24241 24242
24241 24246
24241 41088
24241 24242
24241 24246
24241 41088
24242 24243
24242 33995
24242 41087
24242 24243
24242 33995
24242 41087
24243 24244
24243 24244
24244 24245
24244 33936
24244 24245
24244 33936
24245 24246
24245 24246
24245 33939
24245 33939
24246 41286
24246 41287
24246 41286
24246 41287
1597170 1597171
1597170 1597172
1597170 1604054
1597170 1604139
1597170 1597171
1597170 1597172
1597170 1604054
1597170 1604139
1597171 1597174
1597171 1604116
1597171 1597174
1597171 1604116
1597172 1597173
1597172 1604138
1597172 1597173
1597172 1604138
1597173 1597174
1597173 1597174
1597173 1604138
1597173 1604138
1597174 1604042
1597174 1604042
1597175 1597176
1597175 1598963
1597175 1602421
1597175 1597176
1597175 1598963
1597175 1602421
1597176 1598944
1597176 1598944
1597176 1611169
1597176 1611169
1597199 1604201
1597199 1604201
1597215 1597216
1597215 1597216
1597215 1597240
1597215 1597240
1597216 1610180
1597216 1610180
1597238 1610180
1597238 1610180
1597240 1608747
1597240 1608747
1597242 1597246
1597242 1597246
1597243 1597244
1597243 1597244
1597244 1597245
1597244 1597245
1597245 1597246
1597245 1597246
1597246 1607256
1597246 1607256
1597247 1605079
1597247 1606295
1597247 1606295
1597247 1605079
24394 39539
24394 39539
24395 24396
24395 33000
24395 33002
24395 24396
24395 33000
24395 33002
24396 24398
24396 24397
24396 24398
24396 24397
24397 24398
24397 24398
24398 40510
24398 40510
24413 24414
24413 24424
24413 29225
24413 24414
24413 24424
24413 29225
24414 24415
24414 29224
24414 24415
24414 29224
24415 24416
24415 29223
24415 24416
24415 29223
24416 24417
24416 29223
24416 29223
24416 24417
24417 24418
24417 24419
24417 24418
24417 24419
24419 24420
24419 29107
24419 29287
24419 24420
24419 29287
24419 29107
24420 24421
24420 29308
24420 24421
24420 29308
24421 24422
24421 24422
24422 24423
24422 29228
24422 24423
24422 29228
24423 24424
24423 24424
24423 29227
24423 29227
24424 29227
24424 29227
1597299 1607260
1597299 1607260
1597305 1597306
1597305 1597307
1597305 1607201
1597305 1597306
1597305 1597307
1597305 1607201
1597306 1597317
1597306 1607841
1597306 1597317
1597306 1607841
1597307 1597309
1597307 1607200
1597307 1607200
1597307 1597309
1597308 1597309
1597308 1597309
1597308 1597310
1597308 1597312
1597308 1597310
1597308 1597312
1597309 1612234
1597309 1612234
1597311 1597312
1597311 1597312
1597311 1597313
1597311 1597315
1597311 1597313
1597311 1597315
1597312 1612235
1597312 1612235
1597314 1597315
1597314 1597315
1597314 1597316
1597314 1607199
1597314 1607259
1597314 1597316
1597314 1607199
1597314 1607259
1597315 1612236
1597315 1612236
1597316 1607258
1597316 1597317
1597316 1597317
1597316 1607258
1597317 1610490
1597317 1610490
1597319 1597320
1597319 1597321
1597319 1612225
1597319 1597320
1597319 1597321
1597319 1612225
1597320 1597328
1597320 1598751
1597320 1597328
1597320 1598751
1597321 1597323
1597321 1597461
1597321 1597461
1597321 1597323
1597322 1597323
1597322 1597323
1597322 1597324
1597322 1598426
1597322 1607204
1597322 1597324
1597322 1598426
1597322 1607204
1597323 1612233
1597323 1612233
1597324 1597325
1597324 1597326
1597324 1597325
1597324 1597326
1597326 1597328
1597326 1597327
1597326 1597328
1597326 1597327
1597328 1603507
1597328 1607196
1597328 1610739
1597328 1607196
1597328 1603507
1597328 1610739
1597329 1597330
1597329 1597331
1597329 1607203
1597329 1597330
1597329 1597331
1597329 1607203
1597330 1597332
1597330 1598423
1597330 1597332
1597330 1598423
1597331 1597332
1597331 1607202
1597331 1597332
1597331 1607202
1597332 1598425
1597332 1598425
1597461 1612231
1597461 1612232
1597461 1612231
1597461 1612232
24646 24647
24646 24652
24646 24703
24646 24647
24646 24652
24646 24703
24647 24648
24647 24702
24647 24703
24647 24703
24647 24648
24647 24702
24648 24649
24648 30286
24648 42608
24648 24649
24648 30286
24648 42608
24649 24650
24649 29150
24649 29151
24649 24650
24649 29150
24649 29151
24650 24651
24650 29102
24650 24651
24650 29102
24651 24652
24651 24652
24651 29095
24651 29104
24651 29095
24651 29104
24652 29094
24652 29094
24699 24703
24699 24700
24699 24703
24699 29258
24699 24700
24699 29258
24700 24701
24700 29258
24700 29258
24700 24701
24701 24702
24701 24702
24701 35334
24701 35334
24702 35339
24702 35339
24703 29094
24703 29105
24703 29094
24703 29105
1597606 1597607
1597606 1610606
1597606 1612216
1597606 1597607
1597606 1610606
1597606 1612216
1597607 1597608
1597607 1597791
1597607 1597803
1597607 1610605
1597607 1597608
1597607 1597791
1597607 1597803
1597607 1610605
1597608 1597609
1597608 1597793
1597608 1597609
1597608 1597793
24772 24773
24772 24773
1597751 1597791
1597751 1597791
1594099 1594115
1594099 1594115
1597791 1597792
1597791 1597792
1597797 1597855
1597797 1597798
1597797 1597799
1597797 1597855
1597797 1597798
1597797 1597799
1597798 1597801
1597798 1597801
1597799 1597855
1597799 1597800
1597799 1597804
1597799 1597855
1597799 1597800
1597799 1597804
1597800 1597802
1597800 1597801
1597800 1597801
1597800 1597802
1597802 1597803
1597802 1610603
1597802 1597803
1597802 1610603
1597803 1597805
1597803 1597805
1597804 1597805
1597804 1597805
1597805 1608427
1597805 1608427
1597806 1597807
1597806 1597852
1597806 1597807
1597806 1597823
1597806 1597852
1597806 1610733
1597806 1597823
1597806 1610733
1597807 1597808
1597807 1597852
1597807 1597852
1597807 1597808
24946 24947
24946 24952
24946 25051
24946 24947
24946 24952
24946 25051
24947 24948
24947 25050
24947 24948
24947 25050
24948 24949
24948 24950
24948 24949
24948 24950
24950 24951
24950 25412
24950 24951
24950 25412
24951 39540
24951 24952
24951 24952
24951 39540
24952 40510
24952 40510
1597821 1597822
1597821 1597822
1597822 1597823
1597822 1597823
1597822 1597858
1597822 1597858
1597823 1597857
1597823 1597857
1597841 1597842
1597841 1597843
1597841 1598728
1597841 1597842
1597841 1597843
1597841 1598728
1597842 1597846
1597842 1598804
1597842 1597846
1597842 1598804
1597843 1597844
1597843 1598727
1597843 1598728
1597843 1598728
1597843 1597844
1597843 1598727
1597844 1597845
1597844 1598726
1597844 1597845
1597844 1598726
1597845 1597846
1597845 1597846
1597845 1597875
1597845 1597875
1597846 1597875
1597846 1597875
1597847 1597848
1597847 1597848
1597848 1601689
1597848 1601689
1597857 1597858
1597857 1597858
1597857 1610734
1597857 1610734
1597858 1610604
1597858 1610604
1594114 1594115
1594114 1594115
1594114 1599505
1594114 1599505
1597875 1598762
1597875 1598762
1597876 1598501
1597876 1598501
25021 25022
25021 25022
25021 25023
25021 25027
25021 25331
25021 25023
25021 25027
25021 25331
25022 25023
25022 31028
25022 31113
25022 25023
25022 31028
25022 31113
25023 25025
25023 25028
25023 25025
25023 25028
25024 25025
25024 25025
25024 25026
25024 25033
25024 25343
25024 25026
25024 25033
25024 25343
25025 25027
25025 25026
25025 25027
25025 25026
25026 25029
25026 25032
25026 25029
25026 25032
25027 43577
25027 43577
25028 25029
25028 31029
25028 25029
25028 31029
25029 25034
25029 30349
25029 31005
25029 25034
25029 30349
25029 31005
25032 25033
25032 25033
25032 25035
25032 25345
25032 25035
25032 25345
25033 25345
25033 25345
25034 25035
25034 30370
25034 30997
25034 25035
25034 30370
25034 30997
25035 30998
25035 30998
25036 25037
25036 25038
25036 25353
25036 25037
25036 25038
25036 25353
25037 25041
25037 25045
25037 25353
25037 25353
25037 25041
25037 25045
25038 25039
25038 25352
25038 25039
25038 25352
25039 25040
25039 25040
25040 25041
25040 25041
25041 25046
25041 25046
25042 25043
25042 25044
25042 28608
25042 25043
25042 25044
25042 28608
25043 25047
25043 28608
25043 28608
25043 25047
25044 25045
25044 25045
25044 28610
25044 28610
25045 28641
25045 28641
25046 25047
25046 25342
25046 25047
25046 25342
25047 25341
25047 25341
25048 25050
25048 25049
25048 25050
25048 25403
25048 25049
25048 25403
25049 25051
25049 25051
25049 25402
25049 25402
25051 25413
25051 25413
25093 25094
25093 25095
25093 25094
25093 25095
25094 25358
25094 25095
25094 25358
25094 25095
25095 25357
25095 25357
25188 25227
25188 25227
25197 25198
25197 25516
25197 38845
25197 25198
25197 25516
25197 38845
25198 25199
25198 25199
25198 27397
25198 27397
25199 25211
25199 25218
25199 25211
25199 25218
25202 25231
25202 25239
25202 25231
25202 25239
25205 25206
25205 41050
25205 25206
25205 41050
25206 25207
25206 25208
25206 25207
25206 25208
25208 25210
25208 25209
25208 25210
25208 25209
25210 25380
25210 27478
25210 25380
25210 27478
25211 25222
25211 25244
25211 25222
25211 25244
25212 25213
25212 25213
25218 27397
25218 27397
25220 25221
25220 25221
25221 25222
25221 25222
25222 25530
25222 25530
25227 25228
25227 25229
25227 25248
25227 25229
25227 25228
25227 25248
25228 25230
25228 25230
25228 25236
25228 25263
25228 25236
25228 25263
25229 25230
25229 25230
25230 25237
25230 25237
25231 42473
25231 25232
25231 42473
25231 25232
25235 25239
25235 25236
25235 25236
25235 25239
25236 25495
25236 25495
25237 25239
25237 25239
25239 42473
25239 42473
25244 25245
25244 25245
25244 25246
25244 25530
25244 25530
25244 25246
25245 25246
25245 25246
25246 25497
25246 25529
25246 25497
25246 25529
25247 25248
25247 25248
25247 25249
25247 25583
25247 25616
25247 25249
25247 25583
25247 25616
25248 25262
25248 25740
25248 25262
25248 25740
25262 25263
25262 25263
25262 25265
25262 25740
25262 25740
25262 25265
25263 25266
25263 25266
25264 25265
25264 25265
25264 25268
25264 38227
25264 25268
25264 38227
25265 25574
25265 25574
25266 25495
25266 25267
25266 25495
25266 25267
25267 25268
25267 25268
25267 25506
25267 25510
25267 25506
25267 25510
25275 42697
25275 42697
25322 25323
25322 25324
25322 43592
25322 25323
25322 25324
25322 43592
25323 25324
25323 43591
25323 25324
25323 43591
25324 28639
25324 28639
25329 29258
25329 25330
25329 25335
25329 29258
25329 29259
25329 30968
25329 30970
25329 25330
25329 25335
25329 29259
25329 30968
25329 30970
25330 25331
25330 25331
25330 30984
25330 36764
25330 30984
25330 36764
25331 25332
25331 25332
25332 25333
25332 25333
25333 25334
25333 43585
25333 25334
25333 43585
25334 25335
25334 25335
25335 35335
25335 35335
25341 25342
25341 25342
25342 25347
25342 25348
25342 25347
25342 25348
25343 25344
25343 28639
25343 28639
25343 25344
25344 25353
25344 25353
25344 28640
25344 28640
25345 25346
25345 25346
25346 25347
25346 25347
25346 30339
25346 30345
25346 30364
25346 30339
25346 30345
25346 30364
25347 30859
25347 30859
25357 25358
25357 25358
25358 41067
25358 41067
25380 25381
25380 25425
25380 27477
25380 25381
25380 25425
25380 27477
25381 25382
25381 25382
25381 25426
25381 25426
25382 36654
25382 36654
25402 25403
25402 25403
25403 25412
25403 25412
25404 25405
25404 25406
25404 39557
25404 39559
25404 25405
25404 25406
25404 39557
25404 39559
25405 25415
25405 39558
25405 25415
25405 39558
25406 25407
25406 33082
25406 25407
25406 33082
25407 25408
25407 33081
25407 25408
25407 33081
25408 25409
25408 33068
25408 33069
25408 25409
25408 33068
25408 33069
25409 25410
25409 40505
25409 25410
25409 40505
25410 25411
25410 25411
25411 25412
25411 25412
25413 32997
25413 25414
25413 32997
25413 32998
25413 25414
25413 32998
25414 25415
25414 25415
25414 40511
25414 40511
25415 41365
25415 41365
25424 25425
25424 25426
25424 25425
25424 25426
25424 27357
25424 27358
25424 27357
25424 27358
25427 25428
25427 25431
25427 35674
25427 25428
25427 25431
25427 35674
25428 25429
25428 42780
25428 25429
25428 42780
25429 35959
25429 25430
25429 35959
25429 25430
25430 25431
25430 25431
25430 35670
25430 35670
25440 25442
25440 25441
25440 25441
25440 25442
25440 35940
25440 35940
25441 25442
25441 25442
25493 25494
25493 25501
25493 25494
25493 25501
25494 25495
25494 25495
25497 40492
25497 40492
25498 25506
25498 25499
25498 25500
25498 25506
25498 25499
25498 25500
25499 25504
25499 25508
25499 25514
25499 25504
25499 25508
25499 25514
25500 25501
25500 25501
25501 25506
25501 25506
25503 25504
25503 25504
25504 25511
25504 25511
25507 25508
25507 25508
25507 25509
25507 25756
25507 25509
25507 25756
25508 25798
25508 25798
25509 25510
25509 25510
25509 25573
25509 25573
25510 25574
25510 25574
25511 25514
25511 25512
25511 25514
25511 25512
25512 25513
25512 42464
25512 25513
25512 42464
25513 25514
25513 25514
25513 25811
25513 25811
25515 25517
25515 25516
25515 25516
25515 25517
25515 42695
25515 42695
25516 25550
25516 25550
25517 42689
25517 42689
25529 42474
25529 42474
25550 25551
25550 25554
25550 27393
25550 25551
25550 25554
25550 27393
25551 25552
25551 25552
25551 27402
25551 27402
25552 25553
25552 25553
25553 25554
25553 25554
25554 42694
25554 42694
1598423 1598426
1598423 1598424
1598423 1598426
1598423 1598424
1598425 1598426
1598425 1598426
1598425 1607195
1598425 1607195
25562 25563
25562 25564
25562 27591
25562 25563
25562 25564
25562 27591
25564 27586
25564 38468
25564 27586
25564 38468
25563 25564
25563 27522
25563 25564
25563 27522
25573 25574
25573 25574
25573 25757
25573 25757
25574 25753
25574 42461
25574 25753
25574 42461
25598 25599
25598 25599
25598 27593
25598 27593
25599 27518
25599 27518
1598472 1598505
1598472 1598505
25616 25618
25616 25618
25618 25631
25618 25631
1598489 1598491
1598489 1598491
1598491 1598492
1598491 1601326
1598491 1598492
1598491 1601326
1598495 1598496
1598495 1598496
1598496 1598497
1598496 1598624
1598496 1598497
1598496 1598624
1598497 1598498
1598497 1598784
1598497 1598498
1598497 1598784
1598498 1598500
1598498 1608406
1598498 1608406
1598498 1598500
1598499 1598500
1598499 1598500
1598499 1610297
1598499 1611255
1598499 1610297
1598499 1611255
1598500 1598784
1598500 1598784
1598501 1598502
1598501 1598504
1598501 1598502
1598501 1598504
1598502 1598504
1598502 1607648
1598502 1609757
1598502 1598504
1598502 1607648
1598502 1609757
1598503 1598504
1598503 1598505
1598503 1598505
1598503 1598504
1598505 1612148
1598505 1612148
25705 25706
25705 25706
25740 25752
25740 25763
25740 25764
25740 25752
25740 25763
25740 25764
25741 25752
25741 25742
25741 25743
25741 25752
25741 38411
25741 25742
25741 25743
25741 38411
25742 25753
25742 25753
25742 38412
25742 38412
25743 25744
25743 25810
25743 25744
25743 25810
25744 25745
25744 38232
25744 25745
25744 38232
1598609 1598611
1598609 1608865
1598609 1598611
1598609 1608865
1598611 1598612
1598611 1598612
1598611 1598632
1598611 1598633
1598611 1598640
1598611 1598632
1598611 1598633
1598611 1598640
1598613 1598614
1598613 1598615
1598613 1600192
1598613 1598614
1598613 1598615
1598613 1600192
1598614 1598622
1598614 1600187
1598614 1598622
1598614 1600187
25751 25752
25751 25810
25751 25752
25751 25810
1598615 1598616
1598615 1600203
1598615 1598616
1598615 1600203
1598616 1598617
1598616 1609068
1598616 1598617
1598616 1609068
1598617 1598618
1598617 1600110
1598617 1598618
1598617 1600110
1598618 1600109
1598618 1598619
1598618 1598619
1598618 1600109
1598619 1598620
1598619 1598620
1598620 1598621
1598620 1598621
1598621 1598622
1598621 1598622
1598622 1600187
1598622 1600187
25753 42461
25753 42461
1598624 1598625
1598624 1598625
25757 25811
25757 25811
1598623 1598624
1598623 1598633
1598623 1598624
1598623 1598626
1598623 1598633
1598623 1608866
1598623 1598626
1598623 1608866
1598625 1608885
1598625 1598626
1598625 1598626
1598625 1608885
1598626 1608882
1598626 1608882
25763 25764
25763 25765
25763 25826
25763 25764
25763 25765
25763 25826
25764 25827
25764 25827
1598632 1598633
1598632 1598758
1598632 1608882
1598632 1598633
1598632 1608882
1598632 1598758
25798 25799
25798 25813
25798 25799
25798 25813
25799 25812
25799 25812
25800 25809
25800 25801
25800 25801
25800 25809
25800 27400
25800 27400
25801 25802
25801 25802
25802 25803
25802 25806
25802 25803
25802 25806
25803 25804
25803 25804
25806 25807
25806 25807
25806 27401
25806 27401
25807 25808
25807 25808
25809 27398
25809 27398
25811 42463
25811 42463
25814 25815
25814 27548
25814 25815
25814 27548
25815 25816
25815 27547
25815 25816
25815 27547
25816 25938
25816 25817
25816 25938
25816 25817
25817 25818
25817 25927
25817 25818
25817 25927
25818 25819
25818 25926
25818 25819
25818 25926
25819 38412
25819 25820
25819 38412
25819 25820
25820 25821
25820 27545
25820 25821
25820 27545
25821 25822
25821 25935
25821 25822
25821 25935
25822 25823
25822 25823
25822 25936
25822 25936
1598682 1599374
1598682 1599374
25823 27546
25823 27546
25826 25827
25826 25851
25826 25827
25826 25851
25827 25862
25827 27594
25827 25862
25827 27594
1598697 1598698
1598697 1598699
1598697 1598742
1598697 1598698
1598697 1598699
1598697 1598742
1598698 1598700
1598698 1598779
1598698 1598700
1598698 1598779
1598699 1598700
1598699 1598741
1598699 1598700
1598699 1598741
1598700 1598781
1598700 1598781
1598706 1598707
1598706 1598708
1598706 1598717
1598706 1598707
1598706 1598708
1598706 1598717
1598707 1610678
1598707 1598708
1598707 1598716
1598707 1610678
1598707 1598708
1598707 1598716
1598708 1598712
1598708 1598712
1598709 1598710
1598709 1598711
1598709 1598734
1598709 1598710
1598709 1598711
1598709 1598734
1598710 1598711
1598710 1598733
1598710 1598711
1598710 1598733
1598711 1598732
1598711 1598732
1598712 1610683
1598712 1610684
1598712 1610683
1598712 1610684
1598713 1598714
1598713 1598730
1598713 1610689
1598713 1598714
1598713 1598730
1598713 1610689
1598714 1598729
1598714 1598773
1598714 1598729
1598714 1598773
1598715 1598717
1598715 1598716
1598715 1598716
1598715 1598717
1598715 1610669
1598715 1610669
1598716 1610668
1598716 1610668
1598717 1610670
1598717 1610682
1598717 1610670
1598717 1610682
1598718 1598728
1598718 1598781
1598718 1598719
1598718 1598728
1598718 1598781
1598718 1598719
1598719 1598781
1598719 1598720
1598719 1598781
1598719 1598720
1598720 1598721
1598720 1598722
1598720 1598721
1598720 1598722
1598722 1598723
1598722 1598723
1598723 1598726
1598723 1598726
1598723 1607837
1598723 1607837
1598724 1598725
1598724 1600158
1598724 1600177
1598724 1598725
1598724 1600158
1598724 1600177
1598725 1600169
1598725 1602162
1598725 1600169
1598725 1602162
1598726 1598760
1598726 1607207
1598726 1598760
1598726 1607207
1598729 1598736
1598729 1598767
1598729 1598736
1598729 1598767
1598730 1598737
1598730 1598731
1598730 1598731
1598730 1598737
1598731 1598737
1598731 1598732
1598731 1598737
1598731 1598732
1598732 1598735
1598732 1598735
1598735 1607763
1598735 1598736
1598735 1598736
1598735 1607763
1598735 1607764
1598735 1607764
1598736 1598768
1598736 1610667
1598736 1598768
1598736 1610667
1598737 1598786
1598737 1598786
1598738 1598739
1598738 1598739
1598738 1598740
1598738 1600073
1598738 1600087
1598738 1598740
1598738 1600073
1598738 1600087
1598739 1598740
1598739 1598740
1598740 1610662
1598740 1610662
1598741 1598742
1598741 1598742
1598741 1598809
1598741 1598809
25878 41465
25878 25879
25878 41465
25878 25879
25879 25881
25879 35956
25879 25881
25879 35956
25880 25881
25880 41463
25880 25881
25880 41463
25881 41462
25881 41462
1598742 1598778
1598742 1598778
25877 27592
25877 27592
25876 25877
25876 25877
1598751 1598760
1598751 1598761
1598751 1598762
1598751 1598762
1598751 1598760
1598751 1598761
1598760 1598761
1598760 1598761
1598761 1607206
1598761 1607206
1598762 1610738
1598762 1610738
1598763 1598772
1598763 1607300
1598763 1598764
1598763 1598772
1598763 1607300
1598763 1598764
1598764 1607301
1598764 1607301
1598765 1598770
1598765 1598766
1598765 1598770
1598765 1600102
1598765 1598766
1598765 1600102
1598766 1598767
1598766 1598767
1598766 1598775
1598766 1600101
1598766 1598775
1598766 1600101
1598767 1598773
1598767 1598773
1598767 1598775
1598767 1598775
1598768 1598769
1598768 1598769
1598768 1610663
1598768 1610663
1598769 1600108
1598769 1600108
1598770 1598771
1598770 1600102
1598770 1600102
1598770 1598771
1598772 1610676
1598772 1610676
1598773 1598774
1598773 1610690
1598773 1598774
1598773 1610690
1598775 1600101
1598775 1600114
1598775 1610694
1598775 1600101
1598775 1600114
1598775 1610694
1598778 1598779
1598778 1598779
1598778 1598780
1598778 1598799
1598778 1598780
1598778 1598799
1598779 1598780
1598779 1598781
1598779 1598781
1598779 1598780
1598780 1598803
1598780 1598803
1598782 1608020
1598782 1608021
1598782 1608020
1598782 1608021
1598784 1610717
1598784 1610731
1598784 1610717
1598784 1610731
1598785 1598786
1598785 1598786
1598785 1610687
1598785 1610687
1598787 1598788
1598787 1598789
1598787 1599417
1598787 1598788
1598787 1598789
1598787 1599417
1598788 1598789
1598788 1598793
1598788 1598789
1598788 1598793
1598789 1598794
1598789 1610747
1598789 1598794
1598789 1610747
1598790 1598791
1598790 1598791
1598790 1598796
1598790 1610808
1598790 1598796
1598790 1610808
1598792 1598793
1598792 1599608
1598792 1599608
1598792 1598793
1598794 1598795
1598794 1598815
1598794 1608459
1598794 1598795
1598794 1598815
1598794 1608459
1598795 1598796
1598795 1598796
1598795 1598813
1598795 1598814
1598795 1598813
1598795 1598814
1598796 1608010
1598796 1608010
1598798 1598799
1598798 1598799
1598798 1598807
1598798 1608011
1598798 1610703
1598798 1598807
1598798 1608011
1598798 1610703
1598799 1598808
1598799 1598811
1598799 1598808
1598799 1598811
25935 27545
25935 25936
25935 27545
25935 27549
25935 25936
25935 27549
31205 31206
31205 31206
31205 31207
31205 39312
31205 31207
31205 39312
25936 27546
25936 27546
25936 27550
25936 27550
1598804 1598805
1598804 1598805
1598804 1610737
1598804 1610737
1598805 1598806
1598805 1598807
1598805 1598807
1598805 1598806
1598807 1607834
1598807 1607834
1598808 1607837
1598808 1598809
1598808 1598809
1598808 1598820
1598808 1607837
1598808 1598820
1598809 1598810
1598809 1598810
1598811 1598812
1598811 1598812
1598812 1598813
1598812 1608010
1598812 1598813
1598812 1608010
1598815 1610747
1598815 1598816
1598815 1598826
1598815 1610747
1598815 1598816
1598815 1598826
1598816 1598817
1598816 1598826
1598816 1610732
1598816 1598826
1598816 1598817
1598816 1610732
1598817 1598818
1598817 1598818
1598818 1598820
1598818 1598820
1598818 1607836
1598818 1607836
31209 31210
31209 31211
31209 31210
31209 31211
1598823 1598824
1598823 1598825
1598823 1599375
1598823 1599399
1598823 1598824
1598823 1598825
1598823 1599375
1598823 1599399
1598824 1598825
1598824 1599377
1598824 1598825
1598824 1599377
1598825 1610297
1598825 1610297
1598825 1611332
1598825 1611332
31218 31219
31218 31223
31218 36810
31218 31219
31218 31223
31218 36810
31220 31221
31220 31221
31221 36796
31221 31222
31221 36796
31221 31222
31222 36794
31222 31223
31222 31223
31222 36794
1598937 1598938
1598937 1598950
1598937 1598953
1598937 1598938
1598937 1598950
1598937 1598953
1598938 1598944
1598938 1598944
1598938 1611167
1598938 1611167
1598941 1598942
1598941 1598949
1598941 1598942
1598941 1598949
1598942 1598943
1598942 1598943
1598942 1604820
1598942 1604820
1598943 1598944
1598943 1598944
1598947 1598949
1598947 1598948
1598947 1598949
1598947 1604398
1598947 1598948
1598947 1604398
1598948 1598953
1598948 1598953
1598948 1604751
1598948 1604751
1598949 1604742
1598949 1604743
1598949 1604743
1598949 1604742
1598950 1598951
1598950 1598952
1598950 1598951
1598950 1598952
1598953 1599517
1598953 1599517
1598954 1598955
1598954 1604242
1598954 1604602
1598954 1598955
1598954 1604602
1598954 1604242
1598955 1604242
1598955 1604664
1598955 1604242
1598955 1604664
1598956 1602421
1598956 1598957
1598956 1602421
1598956 1598957
1598957 1598958
1598957 1604834
1598957 1598958
1598957 1604834
1598958 1598960
1598958 1604834
1598958 1604834
1598958 1598960
1598959 1604833
1598959 1598960
1598959 1598960
1598959 1598961
1598959 1604833
1598959 1598961
1598960 1602421
1598960 1602421
1598961 1598962
1598961 1611172
1598961 1598962
1598961 1611172
1598962 1598963
1598962 1598963
1598962 1610122
1598962 1610122
1598963 1599504
1598963 1599504
1598963 1604836
1598963 1604836
26263 26264
26263 26265
26263 39875
26263 26264
26263 26265
26263 39875
26264 26269
26264 41306
26264 26269
26264 41306
26265 26266
26265 39872
26265 26266
26265 39872
26266 26267
26266 39871
26266 26267
26266 39871
26267 26268
26267 41297
26267 26268
26267 41297
26268 26269
26268 26269
26268 41309
26268 41309
26269 41308
26269 41308
1599202 1599374
1599202 1599374
26429 26430
26429 26430
26442 26443
26442 26458
26442 26503
26442 26443
26442 26458
26442 26503
26443 26444
26443 27527
26443 26444
26443 27527
26444 26445
26444 34334
26444 41296
26444 26445
26444 34334
26444 41296
26445 26452
26445 26446
26445 26452
26445 34336
26445 26446
26445 34336
26446 26447
26446 26448
26446 26451
26446 26447
26446 26448
26446 26451
26448 26449
26448 26450
26448 26449
26448 26450
26452 34563
26452 34563
26458 26459
26458 26460
26458 26459
26458 26460
26460 26461
26460 26462
26460 26461
26460 26462
26461 26462
26461 26462
26462 26463
26462 26463
1599351 1599352
1599351 1599353
1599351 1599378
1599351 1610748
1599351 1599352
1599351 1599353
1599351 1599378
1599351 1610748
26488 26489
26488 26492
26488 26501
26488 26489
26488 26492
26488 26501
26489 26490
26489 27524
26489 41310
26489 26490
26489 27524
26489 41310
26490 26491
26490 27528
26490 26491
26490 27528
26491 26503
26491 26492
26491 26492
26491 26503
26492 26502
26492 26502
1599353 1599354
1599353 1610748
1599353 1610748
1599353 1599354
1599354 1599417
1599354 1599355
1599354 1599417
1599354 1599355
1599355 1599417
1599355 1599356
1599355 1599356
1599355 1599417
1599352 1599356
1599352 1599379
1599352 1599356
1599352 1599379
1599356 1599389
1599356 1599389
26501 26503
26501 26503
26501 27570
26501 27570
1599370 1599374
1599370 1599379
1599370 1599374
1599370 1599379
1599374 1599375
1599374 1599375
1599375 1599376
1599375 1599398
1599375 1599376
1599375 1599398
1599377 1599378
1599377 1599378
1599378 1610749
1599378 1610749
1599380 1599381
1599380 1599381
1599381 1599390
1599381 1599390
1599389 1599417
1599389 1599390
1599389 1599417
1599389 1599390
1599398 1608020
1599398 1599399
1599398 1599399
1599398 1608020
1599399 1608020
1599399 1608020
1599504 1602300
1599504 1602300
1599505 1599507
1599505 1602301
1599505 1602301
1599505 1599507
1599506 1599507
1599506 1599507
1599506 1599509
1599506 1605371
1599506 1605371
1599506 1599509
1599507 1611146
1599507 1611146
1599508 1599509
1599508 1599509
1599508 1599510
1599508 1605360
1599508 1599510
1599508 1605360
1599509 1604571
1599509 1604571
1599510 1599511
1599510 1605148
1599510 1605258
1599510 1599511
1599510 1605148
1599510 1605258
1599512 1604751
1599512 1604751
1599512 1605210
1599512 1605210
1599515 1599516
1599515 1604749
1599515 1599516
1599515 1604749
1599516 1599517
1599516 1599517
1599517 1604749
1599517 1604749
1599530 1599531
1599530 1599531
1599531 1599534
1599531 1599534
1599534 1604819
1599534 1604819
1599606 1599607
1599606 1599607
1599607 1599608
1599607 1599608
1599663 1599664
1599663 1600201
1599663 1599664
1599663 1600201
1599664 1600201
1599664 1611702
1599664 1600201
1599664 1611702
1599669 1599670
1599669 1599670
1599670 1599671
1599670 1599671
1599671 1599672
1599671 1599672
1599671 1599710
1599671 1599710
1599674 1600202
1599674 1610807
1599674 1611702
1599674 1611702
1599674 1610807
1599674 1600202
1599703 1599704
1599703 1599710
1599703 1599704
1599703 1599710
1599704 1599710
1599704 1599710
1594518 1594519
1594518 1594520
1594518 1595442
1594518 1594519
1594518 1594520
1594518 1595442
1594519 1595395
1594519 1610298
1594519 1595395
1594519 1610298
27113 27116
27113 35878
27113 27116
27113 35878
27114 27115
27114 27127
27114 27115
27114 27127
27115 35861
27115 27116
27115 27116
27115 35861
27116 35860
27116 35860
27126 27127
27126 27127
27126 39032
27126 39032
27127 40943
27127 27128
27127 27128
27127 40943
27128 40943
27128 40943
1600044 1600045
1600044 1600074
1600044 1600045
1600044 1600074
1600045 1610660
1600045 1610660
1600073 1600074
1600073 1610660
1600073 1610661
1600073 1600074
1600073 1610660
1600073 1610661
1600074 1600075
1600074 1600075
1600075 1600076
1600075 1600081
1600075 1600076
1600075 1600081
1600076 1600077
1600076 1600132
1600076 1600077
1600076 1600132
1600077 1600078
1600077 1600131
1600077 1600078
1600077 1600131
1600078 1600079
1600078 1600079
1600079 1600080
1600079 1600082
1600079 1600080
1600079 1600082
1600080 1600081
1600080 1600081
1600080 1600082
1600080 1600082
1600082 1600083
1600082 1600083
1600083 1600086
1600083 1600096
1600083 1600096
1600083 1600086
1600085 1600086
1600085 1600086
1600086 1600087
1600086 1600087
1600087 1600097
1600087 1600097
1600088 1600091
1600088 1600089
1600088 1600090
1600088 1600091
1600088 1600089
1600088 1600090
1600089 1600094
1600089 1602039
1600089 1602040
1600089 1600094
1600089 1602039
1600089 1602040
1600091 1610701
1600091 1610701
1600092 1600095
1600092 1600095
1600093 1600094
1600093 1600094
1600094 1602045
1600094 1602045
1600095 1610700
1600095 1610700
1600096 1600097
1600096 1600104
1600096 1600130
1600096 1600097
1600096 1600130
1600096 1600104
1600097 1600104
1600097 1600104
1600098 1600099
1600098 1600107
1600098 1600099
1600098 1600107
1600099 1600100
1600099 1600129
1600099 1600100
1600099 1600129
27234 27235
27234 27237
27234 36843
27234 36844
27234 27235
27234 27237
27234 36843
27234 36844
27235 27236
27235 33096
27235 27236
27235 33096
27236 27237
27236 27237
27236 33099
27236 33110
27236 33099
27236 33110
27237 41448
27237 41448
1600102 1600103
1600102 1600103
1600104 1600130
1600104 1600105
1600104 1600130
1600104 1600105
1600101 1600114
1600101 1600114
1600105 1600130
1600105 1600106
1600105 1600130
1600105 1600106
1600100 1600101
1600100 1600101
1600100 1600129
1600100 1600143
1600100 1600129
1600100 1600143
1600108 1610663
1600108 1610663
1600106 1600130
1600106 1600107
1600106 1600107
1600106 1600130
1600110 1600111
1600110 1600112
1600110 1610698
1600110 1600111
1600110 1600112
1600110 1610698
1600112 1600113
1600112 1610698
1600112 1610706
1600112 1610698
1600112 1600113
1600112 1610706
1600113 1600114
1600113 1600114
1600113 1610706
1600113 1610706
1600114 1600115
1600114 1600115
1600115 1600116
1600115 1600116
1600111 1611704
1600111 1611704
1600119 1600120
1600119 1600134
1600119 1600155
1600119 1602144
1600119 1600120
1600119 1600134
1600119 1600155
1600119 1602144
1600120 1600121
1600120 1600121
1600120 1600145
1600120 1600145
1600121 1600145
1600121 1600145
1600122 1600123
1600122 1600127
1600122 1600123
1600122 1600127
27260 27261
27260 27262
27260 27261
27260 27262
27261 27266
27261 27674
27261 27266
27261 27674
27262 27263
27262 27263
27263 27264
27263 28618
27263 27264
27263 28618
27264 27265
27264 28312
27264 27265
27264 28312
27265 27266
27265 27266
27265 27675
27265 27675
27266 27674
27266 27674
1600123 1600124
1600123 1600127
1600123 1600127
1600123 1600124
1600124 1600125
1600124 1600126
1600124 1600125
1600124 1600126
1600127 1600128
1600127 1600144
1600127 1600128
1600127 1600144
1600128 1600129
1600128 1600143
1600128 1600129
1600128 1600143
1600128 1600144
1600128 1600144
1600129 1600143
1600129 1600143
1600132 1600133
1600132 1610714
1600132 1600133
1600132 1610714
1600133 1600134
1600133 1600155
1600133 1600134
1600133 1600155
1600134 1600155
1600134 1600155
1600136 1600145
1600136 1600145
1600136 1600157
1600136 1600157
1600135 1600136
1600135 1600137
1600135 1609070
1600135 1600136
1600135 1600137
1600135 1609070
1600137 1600138
1600137 1600139
1600137 1600138
1600137 1600139
1600139 1600140
1600139 1600160
1600139 1600140
1600139 1600160
1600140 1600141
1600140 1600153
1600140 1600154
1600140 1600141
1600140 1600154
1600140 1600153
1600141 1600142
1600141 1600142
1600141 1600148
1600141 1600148
1600142 1600146
1600142 1600148
1600142 1600146
1600142 1600148
1600143 1600144
1600143 1600144
1600146 1600147
1600146 1600148
1600146 1600148
1600146 1600147
1600147 1600148
1600147 1600148
1600147 1600164
1600147 1600164
1600149 1600150
1600149 1610777
1600149 1600150
1600149 1610777
1600150 1610702
1600150 1610702
1600151 1602053
1600151 1602053
1600152 1600154
1600152 1600153
1600152 1600164
1600152 1600153
1600152 1600154
1600152 1600164
1600153 1600158
1600153 1600158
1600155 1602143
1600155 1602143
1600156 1600157
1600156 1600157
1600156 1602147
1600156 1602149
1600156 1602147
1600156 1602149
1600158 1600159
1600158 1600159
1600159 1602162
1600159 1600160
1600159 1600160
1600159 1600162
1600159 1602162
1600159 1600162
1600160 1600163
1600160 1600163
1600161 1600162
1600161 1600163
1600161 1600162
1600161 1600163
1600161 1600191
1600161 1600191
1600162 1602159
1600162 1602159
1600163 1600191
1600163 1600191
1600164 1611230
1600164 1611230
1600169 1600170
1600169 1602162
1600169 1602162
1600169 1600170
1600170 1602159
1600170 1600171
1600170 1602159
1600170 1600171
1600171 1600172
1600171 1610781
1600171 1600172
1600171 1610781
1600172 1600173
1600172 1610418
1600172 1610774
1600172 1600173
1600172 1610418
1600172 1610774
1600173 1600174
1600173 1600175
1600173 1600206
1600173 1600174
1600173 1600175
1600173 1600206
1600175 1600177
1600175 1600177
1600175 1600178
1600175 1600204
1600175 1600178
1600175 1600204
1600176 1600177
1600176 1600177
1600178 1600203
1600178 1600179
1600178 1600203
1600178 1600211
1600178 1600212
1600178 1600179
1600178 1600211
1600178 1600212
1600179 1600180
1600179 1600180
1600180 1600181
1600180 1600181
1600181 1600182
1600181 1600182
1600183 1600184
1600183 1600184
1600184 1600185
1600184 1600185
1600185 1600186
1600185 1600186
1600186 1600192
1600186 1600187
1600186 1600187
1600186 1600192
1600187 1600192
1600187 1600192
1600182 1600183
1600182 1600183
1600191 1602147
1600191 1602147
27332 27684
27332 27684
1600198 1600199
1600198 1600199
1600199 1600202
1600199 1600202
1600199 1610806
1600199 1610806
1600202 1611702
1600202 1611702
1600202 1611703
1600202 1611703
1600203 1609069
1600203 1600210
1600203 1609069
1600203 1600210
1600204 1600206
1600204 1600205
1600204 1600206
1600204 1600205
1600206 1600207
1600206 1600207
1600207 1610418
1600207 1600208
1600207 1602182
1600207 1602183
1600207 1610418
1600207 1600208
1600207 1602182
1600207 1602183
1600208 1600209
1600208 1600209
1600209 1600210
1600209 1600210
1600209 1600920
1600209 1600920
1600210 1600921
1600210 1600921
1600211 1600213
1600211 1600213
1600212 1600213
1600212 1600213
27350 27351
27350 27352
27350 38427
27350 27351
27350 27352
27350 38427
27351 27352
27351 36055
27351 27352
27351 36055
27352 36045
27352 36045
27357 27358
27357 27468
27357 27470
27357 27358
27357 27470
27357 27468
27358 36655
27358 36655
27362 27363
27362 27364
27362 27395
27362 27396
27362 27363
27362 27364
27362 27395
27362 27396
27363 40126
27363 27487
27363 27367
27363 27487
27363 40126
27363 27367
27364 27365
27364 27395
27364 27395
27364 27365
27365 27366
27365 27366
27366 27367
27366 27367
27366 36659
27366 36659
27367 36055
27367 36055
27368 27369
27368 27370
27368 40628
27368 27369
27368 27370
27368 40628
27369 27372
27369 36046
27369 27372
27369 36046
27370 27371
27370 27371
27371 27372
27371 27372
27372 36047
27372 36047
27373 27374
27373 27374
27374 27376
27374 27486
27374 27376
27374 27486
27375 27376
27375 27396
27375 27396
27375 27376
27377 27378
27377 27378
27378 27379
27378 33379
27378 27379
27378 33379
27379 27380
27379 33378
27379 27380
27379 33378
27380 27381
27380 27382
27380 27381
27380 27382
27382 27383
27382 38428
27382 27383
27382 38428
27383 27384
27383 27387
27383 27467
27383 27384
27383 27387
27383 27467
27384 27385
27384 27386
27384 27385
27384 27386
27387 27388
27387 38420
27387 27388
27387 38420
27388 27389
27388 38417
27388 27389
27388 38417
27389 27390
27389 38417
27389 38417
27389 27390
27390 27391
27390 27411
27390 27391
27390 27411
27391 27401
27391 27392
27391 27401
27391 27403
27391 27392
27391 27403
27392 27393
27392 27402
27392 27393
27392 27402
27393 27394
27393 27394
27394 27395
27394 27395
27394 36660
27394 36660
27395 36660
27395 36660
27396 38846
27396 38846
27397 38844
27397 38844
27398 27399
27398 27430
27398 27399
27398 27430
27399 27400
27399 27400
27399 27499
27399 27499
27401 27411
27401 27411
27402 27403
27402 27403
27403 27404
27403 27404
27405 27406
27405 27407
27405 40623
27405 27406
27405 27407
27405 40623
27406 27409
27406 27409
27407 27408
27407 36657
27407 27408
27407 36657
27408 27409
27408 27409
27408 36656
27408 36656
27411 27458
27411 27459
27411 27459
27411 27458
27412 27413
27412 27456
27412 27608
27412 27413
27412 27456
27412 27608
27413 27414
27413 27415
27413 27607
27413 27414
27413 27415
27413 27607
27415 27416
27415 27418
27415 27416
27415 27418
27416 27417
27416 27418
27416 27418
27416 27417
27418 27419
27418 27622
27418 27419
27418 27622
27419 27421
27419 27420
27419 27421
27419 27420
27421 27422
27421 27422
27422 36948
27422 27423
27422 36948
27422 27423
27423 27424
27423 36945
27423 27424
27423 36945
27424 27425
27424 27426
27424 27425
27424 27426
27426 27427
27426 27428
27426 27495
27426 27427
27426 27428
27426 27495
27428 27430
27428 27429
27428 27430
27428 27429
27430 27431
27430 27431
27431 27432
27431 27529
27431 27432
27431 27529
27432 27457
27432 27433
27432 27457
27432 27433
27433 27434
27433 27600
27433 27434
27433 27600
27454 27455
27454 27455
27455 27456
27455 27456
27455 27461
27455 27461
27456 27460
27456 27460
27457 27458
27457 27458
27460 27467
27460 27467
27460 27609
27460 27609
27465 27466
27465 27466
27466 27467
27466 38420
27466 27467
27466 38420
27468 27469
27468 27469
27469 27470
27469 27470
27469 27475
27469 27475
27470 36650
27470 36650
27471 27472
27471 27473
27471 27474
27471 41929
27471 27472
27471 27473
27471 27474
27471 41929
27472 27481
27472 27602
27472 27604
27472 27481
27472 27602
27472 27604
27474 27475
27474 27475
27478 27479
27478 27480
27478 27479
27478 27480
27480 41050
27480 27481
27480 27481
27480 41050
27481 27604
27481 27604
27482 27483
27482 27485
27482 29159
27482 27483
27482 27485
27482 29159
27483 27484
27483 27643
27483 27644
27483 27484
27483 27643
27483 27644
27484 27485
27484 27485
27485 29161
27485 29161
27486 27487
27486 27487
27486 38846
27486 38846
27495 27496
27495 27497
27495 27496
27495 27497
27497 27498
27497 27498
27498 27499
27498 27499
27498 27514
27498 42476
27498 27514
27498 42476
27499 42476
27499 42476
27502 41710
27502 41710
27509 27510
27509 27510
27509 27511
27509 40617
27509 40648
27509 27511
27509 40617
27509 40648
27510 27514
27510 27749
27510 27514
27510 27749
27511 27512
27511 40491
27511 40647
27511 27512
27511 40647
27511 40491
27512 27513
27512 40491
27512 40491
27512 27513
27513 27514
27513 27514
27513 40490
27513 40490
27517 27593
27517 27518
27517 27519
27517 27518
27517 27519
27517 27593
27518 27523
27518 27523
27519 27594
27519 27594
27520 27521
27520 27521
27521 27522
27521 27522
27522 27523
27522 27523
27523 38467
27523 38467
27524 27525
27524 27526
27524 27525
27524 27526
27526 27527
27526 27527
27545 27549
27545 27549
27546 27553
27546 27553
27547 27548
27547 27548
27548 27585
27548 27585
27549 27550
27549 27551
27549 27550
27549 27551
27550 27552
27550 27553
27550 27553
27550 27552
27551 27552
27551 40645
27551 27552
27551 40645
27552 27555
27552 27555
27553 27554
27553 27554
27553 27555
27553 27555
27554 27556
27554 27557
27554 27557
27554 27556
27555 27556
27555 27556
27558 27559
27558 27560
27558 34438
27558 27559
27558 27560
27558 34438
27559 27584
27559 39888
27559 27584
27559 39888
27560 27561
27560 42514
27560 27561
27560 42514
27561 27562
27561 27563
27561 27562
27561 27563
27563 27564
27563 41408
27563 27564
27563 41408
27564 27565
27564 27719
27564 27720
27564 27565
27564 27719
27564 27720
27565 27566
27565 41317
27565 27566
27565 41317
27566 27567
27566 41316
27566 27567
27566 41316
27567 27568
27567 27569
27567 27568
27567 27569
27569 27570
27569 27570
27569 41416
27569 41416
27570 27571
27570 27571
27571 27572
27571 27572
27572 27573
27572 27573
27573 27574
27573 27574
27574 27575
27574 34198
27574 27575
27574 34198
27575 27576
27575 34416
27575 27576
27575 34416
27576 27577
27576 27577
27577 27578
27577 39858
27577 27578
27577 39858
27578 27579
27578 39857
27578 27579
27578 39857
27579 27584
27579 27580
27579 27584
27579 27580
27580 27581
27580 27581
27581 27584
27581 27582
27581 27584
27581 27582
27582 27583
27582 27583
27585 27586
27585 27586
27592 27593
27592 27594
27592 27926
27592 27593
27592 27594
27592 27926
27593 42010
27593 42010
27596 27597
27596 27598
27596 27672
27596 27673
27596 27685
27596 27597
27596 27598
27596 27672
27596 27673
27596 27685
27597 27598
27597 38446
27597 27598
27597 38446
27598 38469
27598 38469
27602 36070
27602 27603
27602 36070
27602 41930
27602 41931
27602 27603
27602 41930
27602 41931
27603 36070
27603 27604
27603 27604
27603 36070
27604 36071
27604 36071
27605 27606
27605 27612
27605 27737
27605 27606
27605 27612
27605 27737
27606 27620
27606 27607
27606 27607
27606 27620
27607 27623
27607 27623
27609 38428
27609 27610
27609 38428
27609 27610
27610 27611
27610 27614
27610 27611
27610 27614
27611 27612
27611 27612
27611 27618
27611 27618
27612 27613
27612 27613
27614 33378
27614 27615
27614 33378
27614 27615
27615 27616
27615 38432
27615 27616
27615 38432
27616 27617
27616 38429
27616 27617
27616 38429
27617 27618
27617 27618
27618 27738
27618 27738
27620 27623
27620 27623
27623 27624
27623 27624
27631 27632
27631 27645
27631 29163
27631 27632
27631 27645
27631 29163
27632 27633
27632 27640
27632 27633
27632 27640
27633 27634
27633 27635
27633 27634
27633 27635
27635 27636
27635 27639
27635 27636
27635 27639
27636 27637
27636 27637
27637 27639
27637 27638
27637 27639
27637 27638
27639 27640
27639 27640
27640 27641
27640 27641
27641 27642
27641 29177
27641 27642
27641 29177
27642 27643
27642 27643
27642 29174
27642 29176
27642 29174
27642 29176
27643 27744
27643 27744
27644 27645
27644 29165
27644 27645
27644 29165
27645 29164
27645 29165
27645 29165
27645 29164
27646 27647
27646 34450
27646 34451
27646 34460
27646 27647
27646 34460
27646 34450
27646 34451
27647 42485
27647 42496
27647 42485
27647 42496
27648 27649
27648 27662
27648 28678
27648 28684
27648 27649
27648 27662
27648 28684
27648 28678
27649 27650
27649 28689
27649 28699
27649 27650
27649 28699
27649 28689
27650 27651
27650 28197
27650 27651
27650 28197
27651 28196
27651 28196
27662 28162
27662 28162
27666 27667
27666 27667
27667 27668
27667 27668
27667 27669
27667 28006
27667 28006
27667 27669
27669 27670
27669 27671
27669 27670
27669 27671
27670 27676
27670 27675
27670 27675
27670 27676
27671 27672
27671 28006
27671 27672
27671 28006
27672 27682
27672 27682
27673 27674
27673 27674
27675 28314
27675 28314
27676 27677
27676 27677
27677 27678
27677 27678
27682 27683
27682 28006
27682 27683
27682 28006
27683 27684
27683 27684
27684 27685
27684 27685
27685 38443
27685 38443
27686 27687
27686 27688
27686 42551
27686 27687
27686 27688
27686 42551
27687 27728
27687 42498
27687 27728
27687 42498
27688 27689
27688 42550
27688 27689
27688 42550
27689 27690
27689 27691
27689 27690
27689 27691
27691 27692
27691 27693
27691 27692
27691 27693
27693 27694
27693 42538
27693 27694
27693 42538
27694 27695
27694 41411
27694 27695
27694 41411
27695 27696
27695 27697
27695 27696
27695 27697
27697 27698
27697 41414
27697 27698
27697 41414
27698 27699
27698 41436
27698 27699
27698 41436
27699 27700
27699 27701
27699 27983
27699 27700
27699 27701
27699 27983
27701 27702
27701 27992
27701 27702
27701 27992
27702 27703
27702 27710
27702 41298
27702 27703
27702 27710
27702 41298
27703 27704
27703 27709
27703 27704
27703 27709
27704 27705
27704 27708
27704 27705
27704 27708
27705 27706
27705 27707
27705 27706
27705 27707
27710 27719
27710 27711
27710 27719
27710 27711
27711 27719
27711 27712
27711 27719
27711 27712
27712 27713
27712 27714
27712 27713
27712 27714
27714 27715
27714 27716
27714 27715
27714 27716
27716 27717
27716 27718
27716 27717
27716 27718
27720 27721
27720 27724
27720 41410
27720 27721
27720 27724
27720 41410
27721 27722
27721 27723
27721 27722
27721 27723
27724 27725
27724 27734
27724 27725
27724 27734
27725 27726
27725 27733
27725 27726
27725 27733
27726 27727
27726 27732
27726 27727
27726 27732
27727 27728
27727 27728
27727 27735
27727 27735
27728 42499
27728 42500
27728 42499
27728 42500
27729 27730
27729 27731
27729 38445
27729 27730
27729 27731
27729 38445
27730 38446
27730 27731
27730 38446
27730 38470
27730 27731
27730 38470
27734 27735
27734 42512
27734 27735
27734 42512
27735 42501
27735 42501
27736 27737
27736 27738
27736 27737
27736 27738
27736 38431
27736 38431
27737 27740
27737 27740
27738 38430
27738 38430
27739 27740
27739 27740
27739 27743
27739 33377
27739 27743
27739 33377
27740 27741
27740 27741
27741 38431
27741 27742
27741 38431
27741 27742
27742 38429
27742 27743
27742 27743
27742 38429
27744 27745
27744 27752
27744 27827
27744 27745
27744 27752
27744 27827
27745 27746
27745 27827
27745 27827
27745 27746
27746 27827
27746 27747
27746 27827
27746 35131
27746 27747
27746 35131
27747 27748
27747 35298
27747 27748
27747 35298
27748 27749
27748 27749
27748 35298
27748 35298
27749 27750
27749 27750
27750 27751
27750 27813
27750 27813
27750 27751
27751 27752
27751 27752
27752 27814
27752 27814
27756 27757
27756 27758
27756 27759
27756 27757
27756 27758
27756 27759
27757 27764
27757 27812
27757 27764
27757 27812
27759 27760
27759 27811
27759 27760
27759 27811
27760 27761
27760 27762
27760 27810
27760 27761
27760 27762
27760 27810
27762 27763
27762 39954
27762 27763
27762 39954
27763 27764
27763 27764
27763 40723
27763 40723
27764 40712
27764 40712
27765 27766
27765 27768
27765 32792
27765 27766
27765 27768
27765 32792
27766 27767
27766 32791
27766 43167
27766 27767
27766 32791
27766 43167
27767 27768
27767 27768
27767 29179
27767 29179
27768 27876
27768 27876
27769 27783
27769 27783
27782 27783
27782 27783
27782 27904
27782 27904
27783 27994
27783 27994
27784 27785
27784 27789
27784 27821
27784 27785
27784 27789
27784 27821
27785 27786
27785 27819
27785 40614
27785 27786
27785 27819
27785 40614
27786 27787
27786 40614
27786 40614
27786 27787
27787 27788
27787 27788
27788 27789
27788 27789
27789 27821
27789 27821
27790 27791
27790 27792
27790 37239
27790 27791
27790 27792
27790 37239
27791 27792
27791 41790
27791 27792
27791 41790
27792 37251
27792 37251
27793 27794
27793 27795
27793 35431
27793 27794
27793 27795
27793 35431
27794 27812
27794 27812
27794 35433
27794 35433
27795 27796
27795 35682
27795 27796
27795 35682
27796 27797
27796 27798
27796 27797
27796 27798
27798 27799
27798 35357
27798 27799
27798 35357
27799 27800
27799 27803
27799 27800
27799 27803
27800 27801
27800 27802
27800 27801
27800 27802
27803 27804
27803 35356
27803 27804
27803 35356
27804 27805
27804 35450
27804 27805
27804 35450
27805 27806
27805 27807
27805 27806
27805 27807
27807 27808
27807 39961
27807 27808
27807 39961
27808 27809
27808 35344
27808 27809
27808 35344
27809 27810
27809 27810
27809 35350
27809 35350
27810 39955
27810 39955
27812 40711
27812 40711
27813 27814
27813 27814
27814 40618
27814 40618
27815 27816
27815 27817
27815 27816
27815 27817
27816 27818
27816 40719
27816 27818
27816 40719
27817 27818
27817 27818
27818 40717
27818 40717
27819 27820
27819 28615
27819 28637
27819 27820
27819 28637
27819 28615
27820 35131
27820 35298
27820 27822
27820 35131
27820 35298
27820 27822
27821 27822
27821 27822
27822 35298
27822 35298
27823 27824
27823 27826
27823 32884
27823 41611
27823 27824
27823 27826
27823 32884
27823 41611
27824 27825
27824 27826
27824 27826
27824 27825
27826 32883
27826 32883
27827 29174
27827 29174
27833 27834
27833 27848
27833 35550
27833 27834
27833 27848
27833 35550
27834 27835
27834 27945
27834 42234
27834 27835
27834 27945
27834 42234
27835 27836
27835 27949
27835 27836
27835 27949
27836 27837
27836 27838
27836 27837
27836 27838
27838 27839
27838 27948
27838 27839
27838 27948
27839 27840
27839 40696
27839 27840
27839 40696
27840 27841
27840 27842
27840 27841
27840 27842
27842 27843
27842 40698
27842 27843
27842 40698
27843 27844
27843 27845
27843 27844
27843 27845
27845 27846
27845 35554
27845 27846
27845 35554
27846 27847
27846 35526
27846 27847
27846 35526
27847 27848
27847 27848
27847 35551
27847 35551
27848 35551
27848 35551
27874 27876
27874 27875
27874 27876
27874 28664
27874 27875
27874 28664
27875 27877
27875 28664
27875 28664
27875 27877
27876 27877
27876 27877
27877 40832
27877 40832
27893 27894
27893 27904
27893 36951
27893 27904
27893 27894
27893 36951
27904 27994
27904 27994
27912 27913
27912 27913
27913 27914
27913 27920
27913 27914
27913 27920
27914 27915
27914 27916
27914 27919
27914 27915
27914 27916
27914 27919
27916 27917
27916 27918
27916 27917
27916 27918
27921 27923
27921 27922
27921 27923
27921 27922
27923 27924
27923 27924
27926 27929
27926 27930
27926 27929
27926 27930
27927 27928
27927 27937
27927 28149
27927 28169
27927 27928
27927 27937
27927 28149
27927 28169
27928 27929
27928 27929
27928 28188
27928 28188
27929 36949
27929 41044
27929 36949
27929 41044
27930 27931
27930 41995
27930 27931
27930 41995
27931 27932
27931 28145
27931 27932
27931 28145
27932 27933
27932 28028
27932 27933
27932 28028
27933 27934
27933 36676
27933 27934
27933 36676
27934 27935
27934 36677
27934 27935
27934 36677
27935 27936
27935 36678
27935 27936
27935 36678
27936 27937
27936 27937
27936 36679
27936 36679
27937 28150
27937 28150
27942 41995
27942 41995
27945 27946
27945 40709
27945 42235
27945 27946
27945 40709
27945 42235
27946 27947
27946 35951
27946 35952
27946 27947
27946 35951
27946 35952
27947 27948
27947 27948
27958 27959
27958 27970
27958 27981
27958 27982
27958 27959
27958 27970
27958 27981
27958 27982
27959 35951
27959 27960
27959 35951
27959 27960
27960 27961
27960 35400
27960 27961
27960 35400
27961 40719
27961 27962
27961 40719
27961 27962
27962 27963
27962 42177
27962 27963
27962 42177
27963 27964
27963 42170
27963 27964
27963 42170
27964 27965
27964 42169
27964 27965
27964 42169
27965 27966
27965 42169
27965 42169
27965 27966
27966 42169
27966 27967
27966 42168
27966 42169
27966 27967
27966 42168
27967 27968
27967 27969
27967 42173
27967 27968
27967 27969
27967 42173
27969 27970
27969 27970
27969 42174
27969 42174
27970 27971
27970 27971
27978 27982
27978 27979
27978 27982
27978 40694
27978 42179
27978 27979
27978 40694
27978 42179
27979 27980
27979 28019
27979 27980
27979 28019
27980 27981
27980 27981
27980 28021
27980 40977
27980 28021
27980 40977
27981 40976
27981 40976
27982 40694
27982 40694
27983 27984
27983 41435
27983 27984
27983 41435
27984 27985
27984 41434
27984 27985
27984 41434
27985 27986
27985 41433
27985 27986
27985 41433
27986 27987
27986 41432
27986 27987
27986 41432
27987 27988
27987 41431
27987 27988
27987 41431
27988 27989
27988 28626
27988 27989
27988 28626
27989 27990
27989 28625
27989 27990
27989 28625
27990 27991
27990 34678
27990 27991
27990 34678
27991 27992
27991 27992
27991 34564
27991 34564
27992 34569
27992 34569
31615 39302
31615 39302
27994 28189
27994 36949
27994 36949
27994 28189
31616 31619
31616 31617
31616 31619
31616 31621
31616 31617
31616 31621
31618 39355
31618 39355
31619 31620
31619 31620
28015 28016
28015 28087
28015 28016
28015 28087
28016 28069
28016 28069
31620 31621
31620 36777
31620 31621
31620 36777
28019 28020
28019 40984
28019 40985
28019 28020
28019 40984
28019 40985
28020 28021
28020 28021
28020 40979
28020 40979
28021 40978
28021 40978
31621 31622
31621 36776
31621 31622
31621 36776
28026 28027
28026 28032
28026 28685
28026 28027
28026 28032
28026 28685
31622 36774
31622 36775
31622 36774
31622 36775
28027 28028
28027 28028
28027 28688
28027 28708
28027 28708
28027 28688
28028 28029
28028 28029
28029 28196
28029 28030
28029 28196
28029 28030
28030 28031
28030 28031
28032 28197
28032 28197
31623 31639
31623 31639
28031 28196
28031 28032
28031 28032
28031 28196
31624 31625
31624 31625
31625 31628
31625 36778
31625 36778
31625 31628
31626 31627
31626 31627
28054 28055
28054 28056
28054 28123
28054 28055
28054 28056
28054 28123
28055 28059
28055 28085
28055 28108
28055 28059
28055 28108
28055 28085
1600920 1600921
1600920 1600921
1600920 1600944
1600920 1600944
28058 28059
28058 28059
28058 28080
28058 33704
28058 28080
28058 33704
28059 28087
28059 28085
28059 28087
28059 28085
31628 31629
31628 39356
31628 31629
31628 39356
28056 28057
28056 28057
31629 31630
31629 31630
28057 28058
28057 28058
28069 28072
28069 28083
28069 28072
28069 28083
28070 28071
28070 28071
28071 28072
28071 28072
28071 38452
28071 40665
28071 38452
28071 40665
28072 33952
28072 33952
31631 31637
31631 31786
31631 31637
31631 31786
1600944 1600953
1600944 1600953
1600948 1600949
1600948 1600951
1600948 1600951
1600948 1600949
28085 28086
28085 28109
28085 28612
28085 28086
28085 28109
28085 28612
28086 28096
28086 28612
28086 28612
28086 28096
1600952 1600953
1600952 1600954
1600952 1600953
1600952 1600954
1600953 1600954
1600953 1600954
1600949 1600951
1600949 1600950
1600949 1600951
1600949 1600954
1600949 1600950
1600949 1600954
1600950 1600951
1600950 1600951
1600950 1600954
1600950 1600954
28087 28103
28087 28103
28094 28096
28094 28095
28094 28096
28094 28095
28092 28094
28092 28094
28096 28097
28096 28097
28106 28108
28106 28107
28106 28108
28106 28665
28106 28107
28106 28665
28107 28118
28107 28666
28107 28118
28107 28666
28108 28120
28108 28676
28108 28120
28108 28676
28109 28110
28109 28611
28109 28110
28109 28611
28110 28111
28110 28633
28110 28111
28110 28633
31638 31639
31638 36815
31638 31639
31638 36815
31639 31700
31639 31700
31639 31702
31639 31702
28111 28112
28111 28634
28111 28112
28111 28634
28114 28115
28114 28116
28114 28115
28114 28116
28112 28114
28112 28114
28116 28118
28116 28117
28116 28118
28116 28117
28118 28119
28118 28119
28120 28121
28120 28675
28120 28121
28120 28675
31640 31760
31640 31641
31640 31645
31640 31760
31640 31641
31640 31645
31641 31642
31641 31670
31641 31671
31641 31642
31641 31670
31641 31671
28121 28122
28121 28122
28122 28123
28122 28123
28122 28165
28122 28165
31642 31643
31642 31669
31642 31643
31642 31669
28138 28190
28138 28190
28145 28146
28145 28146
28146 41995
28146 41995
28148 28149
28148 28150
28148 28149
28148 28150
28148 28712
28148 28712
28149 28167
28149 28167
28162 28165
28162 28683
28162 28165
28162 28683
28164 28165
28164 28165
28165 28675
28165 28675
28167 28168
28167 28573
28167 28711
28167 28168
28167 28711
28167 28573
28168 28169
28168 28169
28168 28840
28168 28840
28169 28170
28169 28837
28169 28170
28169 28837
28170 28188
28170 28171
28170 28188
28170 28830
28170 28171
28170 28830
28171 28172
28171 28824
28171 28172
28171 28824
28172 28173
28172 28173
28173 28174
28173 43554
28173 28174
28173 43554
28174 28175
28174 28176
28174 28175
28174 28176
28181 28183
28181 28183
28183 28184
28183 28185
28183 43551
28183 28184
28183 28185
28183 43551
28185 28186
28185 28187
28185 28186
28185 28187
28187 28188
28187 28188
28187 43545
28187 43545
28189 28190
28189 28823
28189 28824
28189 28190
28189 28824
28189 28823
28190 28536
28190 28536
31654 31655
31654 36762
31654 31655
31654 36762
28197 28685
28197 28685
31656 31714
31656 31714
31667 31668
31667 31693
31667 31668
31667 31693
31668 31669
31668 31669
31668 31693
31668 31758
31668 31693
31668 31758
31672 31673
31672 31673
31672 31691
31672 31691
28312 28313
28312 40856
28312 28313
28312 40856
28313 28314
28313 28314
28313 33950
28313 33950
28314 33952
28314 33952
28330 28331
28330 28337
28330 28338
28330 28331
28330 28337
28330 28338
28331 28332
28331 31724
28331 31725
28331 28332
28331 31725
28331 31724
28332 28333
28332 31725
28332 31725
28332 28333
28333 28334
28333 31761
28333 28334
28333 31761
28334 28335
28334 31760
28334 28335
28334 31760
28335 28336
28335 31640
28335 31648
28335 28336
28335 31648
28335 31640
28336 28337
28336 28337
28336 31700
28336 31700
28337 31699
28337 31699
28338 28339
28338 28342
28338 28339
28338 28342
28339 28340
28339 28340
28340 28341
28340 28341
28341 28342
28341 28342
31693 31875
31693 31875
31694 31695
31694 31696
31694 31721
31694 31738
31694 31695
31694 31696
31694 31721
31694 31738
31695 31703
31695 31739
31695 31789
31695 31703
31695 31739
31695 31789
31696 31697
31696 31697
31697 31698
31697 31722
31697 31698
31697 31722
31698 31699
31698 31699
31705 31706
31705 31707
31705 31706
31705 31707
31706 31708
31706 31708
28458 28459
28458 28462
28458 28870
28458 28886
28458 28459
28458 28462
28458 28870
28458 28886
28459 28460
28459 28728
28459 38597
28459 28460
28459 28728
28459 38597
28460 28461
28460 38595
28460 28461
28460 38595
28461 28462
28461 28462
28461 28867
28461 38594
28461 28867
28461 38594
28462 28571
28462 28866
28462 28571
28462 28866
1601327 1608406
1601327 1608406
1601326 1601327
1601326 1601327
28486 38866
28486 28594
28486 38866
28486 28594
28530 28848
28530 28848
31723 31725
31723 31724
31723 31724
31723 31725
31723 31767
31723 31767
28536 28829
28536 28829
1601418 1601419
1601418 1601420
1601418 1601419
1601418 1601420
1601419 1601425
1601419 1606546
1601419 1601425
1601419 1606546
1601420 1601421
1601420 1606547
1601420 1601421
1601420 1606547
1601421 1601422
1601421 1609679
1601421 1601422
1601421 1609679
1601422 1601423
1601422 1606394
1601422 1606525
1601422 1601423
1601422 1606394
1601422 1606525
1601423 1601424
1601423 1606395
1601423 1601424
1601423 1606395
1601424 1601425
1601424 1601425
1601424 1607958
1601424 1607958
1601425 1609756
1601425 1609756
28569 28573
28569 28570
28569 28573
28569 28880
28569 28570
28569 28880
28570 28571
28570 28571
28570 28869
28570 28881
28570 28869
28570 28881
28571 28572
28571 28572
28572 28573
28572 28866
28572 28573
28572 28866
31731 31732
31731 31733
31731 31732
31731 31733
31733 31734
31733 31734
31733 31829
31733 31829
28588 28589
28588 28589
28588 28600
28588 30287
28588 35338
28588 28600
28588 35338
28588 30287
28589 28590
28589 39023
28589 28590
28589 39023
28590 28591
28590 38887
28590 28591
28590 38887
28591 28592
28591 28601
28591 28592
28591 28601
28592 38866
28592 28593
28592 28607
28592 38866
28592 28593
28592 28607
28593 28594
28593 28594
31734 31735
31734 31735
28596 28597
28596 36720
28596 28597
28596 36720
28597 28598
28597 36721
28597 28598
28597 36721
28598 28599
28598 36722
28598 28599
28598 36722
28599 28600
28599 28600
28599 36723
28599 36723
28600 42607
28600 42607
28601 28602
28601 38919
28601 28602
28601 38919
28602 28603
28602 38918
28602 28603
28602 38918
28606 28607
28606 28607
28607 28988
28607 28988
28608 28609
28608 28609
28609 28610
28609 35338
28609 28610
28609 35338
28609 43595
28609 43595
28610 28638
28610 43594
28610 28638
28610 43594
28611 28613
28611 28633
28611 28633
28611 28613
28612 28613
28612 33835
28612 28613
28612 33835
28613 33835
28613 33835
28614 28618
28614 28615
28614 28615
28614 28616
28614 28617
28614 28618
28614 28616
28614 28617
28615 28616
28615 28616
28616 28637
28616 28637
28616 34749
28616 34749
28617 28618
28617 40614
28617 28618
28617 40614
28618 40615
28618 40615
28619 28620
28619 28631
28619 28632
28619 28620
28619 28631
28619 28632
28620 28621
28620 28627
28620 37100
28620 28621
28620 28627
28620 37100
28621 28622
28621 37099
28621 28622
28621 37099
28622 28623
28622 42825
28622 28623
28622 42825
28623 28624
28623 42824
28623 28624
28623 42824
28624 34600
28624 28625
28624 28625
28624 34600
28625 34609
28625 34609
28626 28627
28626 37098
28626 28627
28626 37098
28627 28628
28627 37104
28627 28628
28627 37104
28628 28629
28628 28630
28628 28629
28628 28630
28630 28631
28630 28631
28630 30294
28630 30294
28631 30293
28631 30293
28633 28634
28633 28634
28634 28668
28634 28668
28635 28637
28635 28636
28635 28637
28635 28775
28635 28636
28635 28775
28636 28637
28636 28637
28636 34747
28636 34747
28638 28639
28638 28639
28638 43593
28638 43593
28642 28643
28642 28643
28644 28645
28644 28646
28644 28732
28644 28645
28644 28646
28644 28732
28645 28775
28645 28663
28645 28775
28645 28663
28646 28647
28646 28647
28647 28648
28647 28653
28647 28648
28647 28653
28648 28649
28648 28650
28648 28649
28648 28650
28650 28651
28650 28652
28650 28651
28650 28652
28653 28654
28653 28738
28653 28744
28653 28654
28653 28738
28653 28744
28654 28655
28654 28655
28655 28656
28655 28671
28655 28656
28655 28671
28656 28657
28656 28674
28656 28657
28656 28674
28657 28658
28657 28679
28657 28658
28657 28679
28658 28676
28658 28659
28658 28676
28658 28659
28659 28665
28659 28660
28659 28665
28659 28660
28660 28666
28660 28661
28660 28666
28660 28661
28661 28662
28661 40673
28661 28662
28661 40673
28662 28663
28662 28663
28662 40673
28662 40673
28663 34747
28663 34747
28664 40831
28664 40831
28666 28667
28666 28667
28667 28669
28667 40670
28667 28669
28667 40670
28668 28669
28668 40672
28668 28669
28668 40672
28669 40671
28669 40671
28671 28672
28671 28717
28671 28672
28671 28717
28672 28673
28672 28687
28672 28673
28672 28687
28673 28674
28673 28674
28673 28719
28673 28719
28674 28677
28674 28677
28675 28676
28675 28676
28677 28678
28677 28678
28677 28698
28677 28718
28677 28698
28677 28718
28678 28679
28678 28679
28679 28681
28679 28681
28681 28684
28681 28682
28681 28684
28681 28682
28682 28683
28682 28683
28683 28684
28683 28684
28686 28687
28686 28719
28686 28687
28686 28697
28686 28719
28686 28697
28687 28688
28687 28688
28687 28700
28687 28700
28688 28689
28688 28689
28689 28690
28689 28690
28690 28691
28690 28691
28691 28699
28691 28692
28691 28699
28691 28692
28694 28695
28694 28695
28695 28698
28695 28696
28695 28698
28695 28696
28696 28718
28696 28697
28696 28697
28696 28718
28698 28699
28698 28699
28700 28701
28700 28714
28700 28701
28700 28714
28701 28702
28701 28713
28701 28702
28701 28713
28702 28703
28702 28704
28702 28703
28702 28704
28704 28713
28704 28705
28704 28713
28704 28705
28705 28712
28705 28706
28705 28712
28705 28706
28706 36678
28706 28707
28706 36678
28706 28707
28707 36677
28707 28708
28707 28708
28707 36677
28708 36676
28708 36676
28709 28717
28709 28710
28709 28717
28709 28734
28709 28710
28709 28734
28710 28711
28710 28711
28710 28720
28710 28733
28710 28720
28710 28733
28711 28727
28711 28727
28712 36679
28712 36679
28713 28714
28713 28714
28714 28715
28714 28715
28715 28717
28715 28716
28715 28717
28715 28716
28717 28744
28717 28744
28718 28719
28718 28719
28720 28721
28720 28740
28720 28768
28720 28721
28720 28740
28720 28768
28721 28722
28721 28774
28721 28722
28721 28774
28722 28723
28722 28889
28722 28723
28722 28889
28723 28724
28723 28889
28723 28889
28723 28724
28724 28725
28724 28888
28724 28725
28724 28888
28725 28881
28725 28726
28725 28881
28725 28726
28726 28880
28726 28727
28726 28727
28726 28880
28728 28886
28728 28729
28728 28731
28728 28886
28728 28729
28728 28731
28729 28730
28729 28893
28729 28897
28729 28730
28729 28893
28729 28897
28730 28837
28730 28731
28730 28731
28730 28837
28730 28864
28730 28864
28731 28841
28731 28841
28732 28775
28732 28733
28732 28770
28732 28775
28732 28733
28732 28770
28733 28740
28733 28740
28734 28735
28734 28735
28735 28744
28735 28736
28735 28743
28735 28744
28735 28736
28735 28743
28736 28738
28736 28737
28736 28738
28736 28737
28738 28739
28738 28739
28740 28769
28740 28770
28740 28770
28740 28769
28741 28742
28741 28746
28741 32816
28741 28742
28741 28746
28741 32816
28742 32817
28742 32818
28742 32817
28742 32818
28745 28746
28745 28746
28745 32844
28745 32846
28745 32844
28745 32846
28746 32847
28746 32847
31765 31767
31765 31766
31765 31766
31765 31767
31765 31827
31765 31827
28750 28751
28750 28772
28750 29198
28750 29199
28750 28751
28750 28772
28750 29198
28750 29199
28751 28752
28751 29197
28751 29237
28751 28752
28751 29197
28751 29237
28752 28753
28752 28754
28752 28753
28752 28754
28754 28755
28754 29236
28754 28755
28754 29236
28755 28756
28755 29257
28755 38638
28755 28756
28755 29257
28755 38638
28756 28757
28756 42617
28756 28757
28756 42617
28757 28758
28757 42616
28757 28758
28757 42616
28758 28759
28758 38620
28758 28759
28758 38620
28759 28760
28759 38624
28759 28760
28759 38624
28760 28761
28760 38636
28760 28761
28760 38636
28761 28762
28761 29087
28761 28762
28761 29087
28762 28763
28762 28764
28762 28763
28762 28764
28764 28765
28764 29038
28764 28765
28764 29038
28765 28766
28765 29037
28765 28766
28765 29037
28766 28767
28766 29026
28766 28767
28766 29026
28767 28768
28767 28768
28767 29022
28767 29022
28768 28774
28768 28774
28770 28771
28770 28771
28771 35131
28771 28772
28771 28772
28771 35131
28772 28773
28772 40877
28772 28773
28772 40877
28774 28890
28774 29022
28774 29022
28774 28890
28775 35132
28775 35132
28781 28782
28781 29236
28781 28782
28781 28820
28781 29236
28781 28820
28782 28783
28782 29080
28782 28783
28782 29080
28783 28784
28783 43066
28783 28784
28783 43066
28784 28785
28784 29253
28784 28785
28784 29253
28785 28786
28785 29251
28785 28786
28785 29251
28786 28787
28786 28788
28786 28787
28786 28788
28788 28789
28788 38653
28788 28789
28788 38653
28789 28790
28789 29097
28789 28790
28789 29097
28790 28791
28790 29099
28790 28791
28790 29099
28791 28792
28791 28793
28791 28792
28791 28793
28793 28794
28793 28795
28793 28794
28793 28795
28795 28796
28795 28797
28795 28796
28795 28797
28797 28798
28797 28800
28797 28798
28797 28800
1601654 1604157
1601654 1604274
1601654 1604439
1601654 1604157
1601654 1604274
1601654 1604439
31774 31775
31774 31778
31774 31778
31774 31775
31775 31776
31775 31935
31775 31776
31775 31935
31776 31784
31776 31777
31776 31777
31776 31784
31776 31934
31776 31934
28800 29217
28800 29217
28804 28805
28804 38665
28804 28805
28804 38665
28805 28807
28805 28807
28807 28808
28807 29206
28807 28808
28807 29206
28808 28809
28808 29212
28808 28809
28808 29212
28809 28810
28809 28811
28809 28810
28809 28811
28811 29212
28811 28812
28811 29212
28811 28812
28812 28813
28812 29211
28812 28813
28812 29211
28813 28814
28813 29209
28813 29210
28813 28814
28813 29209
28813 29210
28814 28815
28814 28815
28815 28816
28815 38625
28815 38626
28815 28816
28815 38625
28815 38626
28816 28817
28816 29204
28816 28817
28816 29204
28817 28818
28817 29203
28817 28818
28817 29203
28818 28819
28818 38637
28818 28819
28818 38637
28819 29257
28819 28820
28819 28820
28819 29257
28820 28821
28820 28821
28822 28823
28822 28823
28822 28825
28822 28871
28822 28879
28822 28825
28822 28871
28822 28879
28823 28826
28823 28826
28824 28825
28824 41049
28824 28825
28824 41049
28825 28832
28825 28832
28826 28879
28826 28827
28826 28879
28826 28927
28826 28827
28826 28927
28827 28828
28827 28917
28827 28828
28827 28917
28828 28829
28828 28829
28828 28910
28828 28918
28828 28910
28828 28918
28829 28877
28829 28877
28830 28831
28830 28836
28830 28831
28830 28836
28831 28832
28831 28832
28831 28865
28831 28865
28832 28871
28832 28871
28833 28834
28833 28839
28833 28906
28833 28933
28833 28834
28833 28839
28833 28906
28833 28933
28834 28835
28834 28901
28834 28935
28834 28835
28834 28901
28834 28935
28835 28836
28835 28836
28835 28868
28835 28868
28836 28865
28836 28865
28837 28838
28837 28838
28838 28864
28838 28839
28838 28839
28838 28864
28839 28903
28839 28903
28840 28841
28840 38594
28840 38594
28840 28841
28841 38596
28841 38596
31784 31785
31784 31785
28843 28844
28843 28874
28843 28844
28843 28874
28842 28848
28842 28843
28842 28848
28842 28875
28842 28911
28842 28843
28842 28911
28842 28875
28844 28845
28844 28912
28844 28845
28844 28912
28845 28846
28845 28855
28845 28846
28845 28855
31785 43402
31785 43402
28848 28910
28848 28910
1601704 1604158
1601704 1604504
1601704 1604158
1601704 1604504
31786 39385
31786 39385
28855 28856
28855 28856
28856 28862
28856 28862
28859 28860
28859 28914
28859 28860
28859 28914
28860 28861
28860 28913
28860 28861
28860 28913
28861 28862
28861 28862
28861 28946
28861 28970
28861 28946
28861 28970
28862 28941
28862 28941
28864 28897
28864 28897
28864 28903
28864 28903
28865 28871
28865 28868
28865 28871
28865 28868
28866 28867
28866 28867
28868 28878
28868 28902
28868 28878
28868 28902
28869 28870
28869 28870
28869 28882
28869 28884
28869 28882
28869 28884
28870 28885
28870 28885
28871 28878
28871 28878
28872 28873
28872 28876
28872 28937
28872 28873
28872 28876
28872 28937
28873 28874
28873 28874
28873 28939
28873 28939
28874 28875
28874 28875
28874 28912
28874 28912
28875 28876
28875 28876
28876 28911
28876 28911
28876 28919
28876 28919
28877 28910
28877 28910
28878 28879
28878 28879
28878 28926
28878 28926
28879 28925
28879 28925
28880 28881
28880 28881
28881 28882
28881 28882
28882 28888
28882 28883
28882 28888
28882 28883
28883 28884
28883 28884
28883 28887
28883 28894
28883 28887
28883 28894
28884 28885
28884 28891
28884 28885
28884 28891
28885 28886
28885 28886
28885 28892
28885 28892
28886 28893
28886 28893
28887 28888
28887 28890
28887 28888
28887 28890
28887 28895
28887 28895
28888 28889
28888 28889
28889 28890
28889 28890
28890 29018
28890 29018
28891 28894
28891 28892
28891 28894
28891 28900
28891 28892
28891 28900
28892 28893
28892 28893
28892 28898
28892 28898
28893 28896
28893 28896
28894 28895
28894 29024
28894 28895
28894 29024
28895 29018
28895 29025
28895 29018
28895 29025
28896 28897
28896 28898
28896 28897
28896 28898
28896 28909
28896 28909
28897 28908
28897 28908
28898 28899
28898 29032
28898 28899
28898 29032
28899 28900
28899 28900
28899 29023
28899 29031
28899 29023
28899 29031
28900 29024
28900 29024
28901 28902
28901 28924
28901 28936
28901 28902
28901 28924
28901 28936
28902 28926
28902 28926
28903 28906
28903 28906
28903 28907
28903 28907
28904 28908
28904 28905
28904 28908
28904 29035
28904 29079
28904 28905
28904 29035
28904 29079
28905 28906
28905 28906
28905 29075
28905 29075
28907 28908
28907 28908
28908 28909
28908 28909
28909 29032
28909 29035
28909 29032
28909 29035
28910 28911
28910 28911
28911 28918
28911 28918
28912 28913
28912 42618
28912 28913
28912 42618
28913 28914
28913 28914
28914 28915
28914 28915
28917 28918
28917 28928
28917 28918
28917 28928
28918 28919
28918 28919
28919 28937
28919 28928
28919 28937
28919 28928
28920 28921
28920 28939
28920 28921
28920 28923
28920 28939
28920 28992
28920 28923
28920 28992
28921 28922
28921 28954
28921 28922
28921 28954
28922 28923
28922 28923
28922 28972
28922 28972
28923 28972
28923 28972
28924 28926
28924 28925
28924 28925
28924 28926
28924 28932
28924 28932
28925 28927
28925 28927
28925 28929
28925 28929
28927 28928
28927 28930
28927 28928
28927 28930
28928 28931
28928 28931
28929 28932
28929 28930
28929 28932
28929 28944
28929 28930
28929 28944
28930 28931
28930 28944
28930 28931
28930 28944
28931 28937
28931 28937
28931 28938
28931 28938
28932 28936
28932 28936
28932 29077
28932 29077
28933 28934
28933 29069
28933 29075
28933 29075
28933 28934
28933 29069
28934 28935
28934 28935
28934 29076
28934 29085
28934 29076
28934 29085
28935 28936
28935 28936
28936 29076
28936 29076
28937 28940
28937 28940
28938 28939
28938 28992
28938 28944
28938 28939
28938 28940
28938 28944
28938 28992
28938 28940
28939 28992
28939 28992
28944 29083
28944 29083
28946 28947
28946 28947
28954 28991
28954 28970
28954 28955
28954 28970
28954 28991
28954 28955
28955 28956
28955 29003
28955 28956
28955 29003
28956 28957
28956 29007
28956 28957
28956 29007
28957 28958
28957 29005
28957 28958
28957 29005
1601819 1604176
1601819 1604273
1601819 1604275
1601819 1604275
1601819 1604176
1601819 1604273
28970 28971
28970 28972
28970 28972
28970 28971
28973 28981
28973 28981
28981 29003
28981 28982
28981 29003
28981 29013
28981 28982
28981 29013
28991 28993
28991 38617
28991 28993
28991 38617
28992 29083
28992 29083
28993 28994
28993 38607
28993 28994
28993 38607
28994 28995
28994 29115
28994 38608
28994 28995
28994 29115
28994 38608
28999 29001
28999 29001
29001 29003
29001 29002
29001 29003
29001 29002
29003 29007
29003 29007
31816 31817
31816 31826
31816 31817
31816 31826
29005 29006
29005 29006
29006 29007
29006 29007
31817 36818
31817 36818
31818 31819
31818 39382
31818 31819
31818 39382
1594913 1594914
1594913 1594914
29018 29022
29018 29022
29018 29027
29018 29027
31819 31820
31819 31820
1594914 1594915
1594914 1594915
29022 29026
29022 29026
29023 29024
29023 29025
29023 29024
29023 29025
29023 29030
29023 29030
1594915 1594916
1594915 1594916
29026 29037
29026 29027
29026 29037
29026 29027
29027 29028
29027 29028
29025 29027
29025 29029
29025 29027
29025 29029
29028 29037
29028 29029
29028 29029
29028 29037
29028 29039
29028 29039
29030 29031
29030 29031
29030 29036
29030 29036
29029 29030
29029 29030
29029 29040
29029 29040
29031 29032
29031 29032
29031 29033
29031 29033
1594917 1594918
1594917 1594919
1594917 1594918
1594917 1594919
29033 29036
29033 29034
29033 29036
29033 29043
29033 29034
29033 29043
29034 29035
29034 29035
29034 29044
29034 29044
29035 29078
29035 29078
29036 29040
29036 29040
29036 29042
29036 29042
1594918 1594930
1594918 1602033
1594918 1602034
1594918 1594930
1594918 1602033
1594918 1602034
29041 29045
29041 29045
29037 29038
29037 29038
29038 29039
29038 29039
29039 29041
29039 29041
1594919 1594920
1594919 1602083
1594919 1594920
1594919 1602083
29040 29041
29040 29045
29040 29041
29040 29045
29042 29043
29042 29043
29042 29045
29042 29045
29043 29044
29043 29044
29044 29070
29044 29078
29044 29078
29044 29070
1594920 1594921
1594920 1610392
1594920 1594921
1594920 1610392
29046 29047
29046 29066
29046 39696
29046 29047
29046 29066
29046 39696
29047 29048
29047 30095
29047 29048
29047 30095
29048 29049
29048 32803
29048 29049
29048 32803
1594921 1594922
1594921 1594922
29049 29050
29049 29053
29049 29050
29049 29053
29050 29051
29050 29052
29050 29051
29050 29052
1594922 1594923
1594922 1594923
29053 29054
29053 40956
29053 29054
29053 40956
29054 29055
29054 29580
29054 29055
29054 29580
29055 29056
29055 33703
29055 29056
29055 33703
29056 29057
29056 31085
29056 29057
29056 31085
1594923 1594924
1594923 1600151
1594923 1594924
1594923 1600151
29057 29058
29057 31084
29057 29058
29057 31084
29058 29059
29058 29060
29058 29059
29058 29060
29060 29061
29060 29064
29060 29061
29060 29064
1594924 1594925
1594924 1600151
1594924 1610699
1594924 1610707
1594924 1600151
1594924 1594925
1594924 1610699
1594924 1610707
29064 29065
29064 33534
29064 29065
29064 33534
29065 33457
29065 29066
29065 29066
29065 33457
29066 39662
29066 39662
29067 29068
29067 29074
29067 43057
29067 29068
29067 29074
29067 43057
29068 29080
29068 29069
29068 29069
29068 29080
29068 29086
29068 29086
29069 29070
29069 29070
29070 29071
29070 29071
29071 29072
29071 29092
29071 29072
29071 29092
29072 29074
29072 29073
29072 29074
29072 29073
29073 29074
29073 29074
29075 29079
29075 29079
29076 29077
29076 29077
29076 29085
29076 29085
29077 29084
29077 29084
29078 29079
29078 29079
29080 29081
29080 36692
29080 29081
29080 36692
29081 29105
29081 29082
29081 29105
29081 29114
29081 29082
29081 29114
29082 29083
29082 29083
29082 29106
29082 29106
29083 29084
29083 29084
29084 29085
29084 29085
29087 29088
29087 29090
29087 43049
29087 29088
29087 29090
29087 43049
29088 29089
29088 29089
29090 29092
29090 29091
29090 29092
29090 43054
29090 29091
29090 43054
29092 29093
29092 43054
29092 43054
29092 29093
29094 29096
29094 29105
29094 29105
29094 29096
29095 29096
29095 29096
29096 29106
29096 29106
29106 36689
29106 36689
29098 29099
29098 29099
29099 29213
29099 29213
29102 29103
29102 29157
29102 29103
29102 29157
29103 29104
29103 29104
29104 36680
29104 36680
29105 29114
29105 29114
29107 29108
29107 29113
29107 29299
29107 29108
29107 29113
29107 29299
29108 29109
29108 29303
29108 29109
29108 29303
29109 29110
29109 29293
29109 29110
29109 29293
29110 29111
29110 36751
29110 29111
29110 36751
29111 29112
29111 29112
29112 29113
29112 29113
29112 36761
29112 36761
29113 29288
29113 29288
29114 29259
29114 29259
29114 29264
29114 29264
29115 29145
29115 29145
31840 31841
31840 31841
31841 31842
31841 37343
31841 31842
31841 37343
1594936 1594937
1594936 1594937
31842 31844
31842 31843
31842 31844
31842 31843
1594937 1594939
1594937 1610776
1594937 1594939
1594937 1610776
29143 29145
29143 29144
29143 29145
29143 29172
29143 29144
29143 29172
29144 29149
29144 29155
29144 29149
29144 29155
29145 29146
29145 29146
29148 29149
29148 29149
29148 38609
29148 38609
29149 29156
29149 29156
29151 29152
29151 29171
29151 29152
29151 29171
29152 29153
29152 29153
29153 29171
29153 29154
29153 29171
29153 29154
29154 29172
29154 29155
29154 29155
29154 29172
29156 29157
29156 29157
29156 38610
29156 38610
29157 38616
29157 38616
29158 29159
29158 29166
29158 29159
29158 29166
29159 29160
29159 29160
29161 29162
29161 29162
29163 29170
29163 29170
29163 29192
29163 29192
29165 29166
29165 29166
29166 29167
29166 29167
29168 29169
29168 29169
1602033 1602034
1602033 1603367
1602033 1602034
1602033 1603367
1602034 1602039
1602034 1602039
29171 29172
29171 29172
29170 29186
29170 29186
29169 29170
29169 29170
29173 29188
29173 32711
29173 29188
29173 32711
29174 29316
29174 29316
1602039 1603367
1602039 1603367
29175 29177
29175 29176
29175 29176
29175 29177
29175 29195
29175 29195
29176 32751
29176 32752
29176 32751
29176 32752
29178 29179
29178 29179
29178 29180
29178 40822
29178 29180
29178 40822
29179 29182
29179 29182
29186 29187
29186 29187
29188 29189
29188 32711
29188 32711
29188 29189
29189 29190
29189 29190
29190 29191
29190 29191
29184 29191
29184 32757
29184 32757
29184 29191
29183 29184
29183 29184
29183 29185
29183 29193
29183 32756
29183 29185
29183 29193
29183 32756
1602053 1602054
1602053 1610708
1602053 1602054
1602053 1610708
1602054 1602055
1602054 1602056
1602054 1602056
1602054 1602055
29193 29194
29193 29194
29194 29195
29194 29195
29194 32733
29194 32733
29195 32733
29195 32733
29196 29199
29196 29197
29196 29197
29196 29199
29196 29330
29196 29330
29192 29193
29192 29193
29197 29218
29197 29218
29199 29319
29199 29319
29200 29330
29200 29330
29204 29205
29204 29205
29201 29202
29201 41633
29201 29202
29201 41633
29206 38665
29206 29207
29206 29216
29206 38665
29206 29207
29206 29216
29207 29208
29207 29208
29208 29209
29208 29209
29209 38628
29209 38628
29213 29214
29213 38649
29213 38664
29213 29214
29213 38649
29213 38664
29214 29215
29214 38646
29214 29215
29214 38646
29215 29216
29215 29216
29215 38645
29215 38645
29216 29217
29216 29217
29216 38643
29216 38643
1602073 1602074
1602073 1602075
1602073 1602074
1602073 1602075
1602074 1602075
1602074 1602075
1602075 1602088
1602075 1602088
1602076 1602079
1602076 1602077
1602076 1602079
1602076 1602077
1602077 1602078
1602077 1602087
1602077 1602078
1602077 1602087
1602078 1602079
1602078 1602079
1602078 1602086
1602078 1602086
29225 29226
29225 29227
29225 29227
29225 29226
29228 29229
29228 29229
1602084 1610382
1602084 1610382
1602087 1602088
1602087 1602088
1602089 1610388
1602089 1602090
1602089 1602091
1602089 1610388
1602089 1602090
1602089 1602091
1602090 1602091
1602090 1610389
1602090 1602091
1602090 1610389
1602091 1610390
1602091 1610390
29231 29287
29231 29306
29231 29287
29231 29306
29233 29234
29233 29235
29233 29234
29233 29235
29229 29308
29229 29230
29229 29308
29229 29230
29230 29231
29230 29308
29230 29231
29230 29308
29236 29237
29236 29237
29241 29242
29241 29243
29241 29242
29241 29243
29239 29240
29239 29256
29239 29240
29239 29256
29238 29239
29238 29239
29248 29249
29248 29250
29248 29249
29248 29250
29250 29251
29250 29251
29250 38656
29250 38656
29244 29245
29244 29246
29244 29245
29244 29246
29246 29247
29246 29248
29246 38657
29246 29247
29246 29248
29246 38657
29254 38636
29254 29255
29254 38636
29254 29255
29255 29256
29255 29256
29255 38623
29255 38623
29256 38659
29256 38659
1602112 1610399
1602112 1602113
1602112 1610399
1602112 1602113
1602113 1602114
1602113 1602163
1602113 1602114
1602113 1602163
1602114 1602115
1602114 1602116
1602114 1602115
1602114 1602116
29260 37305
29260 37305
29261 29262
29261 29278
29261 39297
29261 29262
29261 29278
29261 39297
29253 29254
29253 43057
29253 43057
29253 29254
1602119 1602120
1602119 1602161
1602119 1602167
1602119 1602169
1602119 1602120
1602119 1602161
1602119 1602167
1602119 1602169
1602120 1602143
1602120 1602121
1602120 1602143
1602120 1602146
1602120 1602121
1602120 1602146
29266 29267
29266 29267
29267 29268
29267 29297
29267 29268
29267 29297
29268 29269
29268 29270
29268 29269
29268 29270
29270 29271
29270 29274
29270 29271
29270 29274
29271 29272
29271 29273
29271 29272
29271 29273
29274 29275
29274 29305
29274 29275
29274 29305
29275 29276
29275 30338
29275 29276
29275 30338
29276 29278
29276 29277
29276 29278
29276 29277
29279 29280
29279 29280
29279 29294
29279 29294
29280 36691
29280 36691
29278 30338
29278 30338
1602144 1602145
1602144 1602151
1602144 1602158
1602144 1602145
1602144 1602158
1602144 1602151
29284 29285
29284 30974
29284 29285
29284 30974
29285 29286
29285 29286
29281 29282
29281 29286
29281 31626
29281 29282
29281 29286
29281 31626
1602145 1602146
1602145 1602146
1602145 1602151
1602145 1602151
1602146 1602161
1602146 1602161
29282 29283
29282 31627
29282 29283
29282 31627
29283 29284
29283 30975
29283 29284
29283 30975
29291 29292
29291 31076
29291 31078
29291 29292
29291 31076
29291 31078
29286 36773
29286 36773
29287 29288
29287 29288
29294 29295
29294 29295
29295 29296
29295 29310
29295 29296
29295 29310
29296 29297
29296 29297
29296 30295
29296 30295
29297 29304
29297 29304
1602163 1602164
1602163 1610398
1602163 1602164
1602163 1610398
1602164 1602165
1602164 1610397
1602164 1602165
1602164 1610397
1602165 1602166
1602165 1602166
1602165 1602175
1602165 1602177
1602165 1602175
1602165 1602177
29304 29305
29304 29305
29305 30295
29305 30295
1602161 1602167
1602161 1602167
29298 29299
29298 29326
29298 29299
29298 29326
29299 29301
29299 29324
29299 29301
29299 29324
29309 36751
29309 29310
29309 29310
29309 36751
1602175 1602176
1602175 1602177
1602175 1602177
1602175 1602176
1602176 1610395
1602176 1610396
1602176 1610395
1602176 1610396
29306 29307
29306 29307
29306 38670
29306 38670
29311 29314
29311 29312
29311 29314
29311 31065
29311 29312
29311 31065
1602182 1602183
1602182 1610784
1602182 1602183
1602182 1610784
1602183 1610417
1602183 1610417
29312 29313
29312 29320
29312 31619
29312 29313
29312 31619
29312 29320
29313 31081
29313 29314
29313 29314
29313 29323
29313 31081
29313 29323
1602186 1602187
1602186 1602187
29315 29316
29315 29319
29315 29316
29315 29317
29315 29319
29315 29317
29316 29318
29316 29318
29317 29319
29317 29318
29317 29319
29317 29318
29318 40878
29318 40878
29320 29321
29320 29323
29320 31616
29320 29323
29320 29321
29320 31616
29321 29322
29321 31617
29321 39294
29321 29322
29321 31617
29321 39294
29322 29323
29322 29323
29322 31615
29322 39304
29322 31615
29322 39304
29323 31083
29323 31083
29324 29325
29324 29325
29324 31066
29324 31066
29325 29337
29325 31618
29325 31630
29325 31618
29325 29337
29325 31630
29326 29327
29326 29327
29328 29329
29328 29329
29328 29334
29328 32939
29328 29334
29328 32939
29329 32728
29329 32728
29330 29331
29330 29331
29331 29332
29331 29332
29332 29333
29332 32927
29332 29333
29332 32927
29333 29334
29333 29334
29333 32929
29333 32929
29334 32929
29334 32929
29335 29337
29335 29337
29336 29339
29336 29337
29336 29339
29336 29337
29338 29339
29338 31623
29338 29339
29338 29340
29338 31623
29338 29340
29339 29340
29339 29340
29340 31630
29340 31625
29340 31630
29340 31625
29341 29342
29341 29342
29342 29343
29342 29343
29342 32924
29342 32944
29342 32924
29342 32944
29343 29364
29343 29364
29344 29345
29344 29345
29345 29346
29345 29347
29345 29346
29345 29347
29347 29348
29347 29349
29347 29348
29347 29349
29349 29350
29349 29356
29349 29350
29349 29356
29350 29351
29350 29352
29350 29351
29350 29352
29352 29353
29352 29353
29352 36816
29352 36816
29353 31715
29353 31717
29353 31715
29353 31717
29355 29356
29355 36817
29355 29356
29355 36817
29357 29358
29357 29359
29357 29361
29357 29358
29357 29359
29357 29361
29358 29360
29358 29380
29358 29360
29358 29380
29359 29360
29359 29363
29359 29360
29359 29363
29360 29382
29360 29382
29361 29362
29361 31788
29361 29362
29361 31788
29362 29363
29362 29363
29362 31791
29362 31791
29363 31790
29363 31792
29363 31790
29363 31792
29364 32924
29364 29365
29364 32924
29364 37280
29364 29365
29364 37280
29365 29366
29365 37278
29365 29366
29365 37278
29366 29367
29366 37277
29366 29367
29366 37277
29367 29368
29367 29368
29368 29369
29368 37277
29368 29369
29368 37277
29369 29370
29369 29370
29371 29372
29371 31823
29371 29372
29371 31823
29372 29373
29372 29374
29372 29373
29372 29374
29374 29375
29374 29376
29374 31821
29374 29375
29374 29376
29374 31821
29376 29377
29376 29378
29376 31793
29376 29377
29376 29378
29376 31793
29378 29380
29378 29379
29378 29380
29378 29379
29380 29381
29380 29381
29383 29384
29383 29389
29383 29384
29383 29389
29384 29385
29384 29386
29384 29389
29384 29389
29384 29385
29384 29386
29386 29387
29386 29388
29386 29387
29386 29388
29388 29389
29388 29389
31893 31894
31893 31895
31893 31894
31893 31895
31895 31897
31895 31896
31895 31897
31895 31896
31897 31898
31897 31898
31898 31899
31898 37338
31898 31899
31898 37338
31899 31900
31899 37337
31899 31900
31899 37337
31900 31901
31900 37335
31900 37336
31900 31901
31900 37335
31900 37336
1602293 1602294
1602293 1602298
1602293 1602294
1602293 1602298
31901 31902
31901 31902
1602295 1602296
1602295 1605427
1602295 1605428
1602295 1602296
1602295 1605427
1602295 1605428
1602294 1602295
1602294 1611256
1602294 1602295
1602294 1611256
1602296 1602297
1602296 1609624
1602296 1602297
1602296 1609624
1602297 1602298
1602297 1602298
1602297 1605492
1602297 1612004
1602297 1605492
1602297 1612004
1602299 1602300
1602299 1602301
1602299 1605371
1602299 1602300
1602299 1602301
1602299 1605371
1602299 1605376
1602299 1609561
1602299 1605376
1602299 1609561
1602300 1602301
1602300 1604835
1602300 1602301
1602300 1604835
1602298 1602324
1602298 1602324
31903 31904
31903 33883
31903 31904
31903 33883
31904 31905
31904 31905
31905 31906
31905 31906
31906 33882
31906 33882
1602323 1605504
1602323 1611256
1602323 1611256
1602323 1605504
31907 31908
31907 31909
31907 31908
31907 31909
1602333 1602334
1602333 1602337
1602333 1602334
1602333 1602337
1602334 1602335
1602334 1606351
1602334 1606404
1602334 1602335
1602334 1606404
1602334 1606351
1602335 1602336
1602335 1606403
1602335 1602336
1602335 1606403
1602336 1602337
1602336 1602337
1602336 1608409
1602336 1608409
1602337 1606353
1602337 1606353
31910 31911
31910 31914
31910 36877
31910 31911
31910 31914
31910 36877
31914 31915
31914 31915
31914 36874
31914 36874
31915 36868
31915 36868
1595014 1595015
1595014 1595020
1595014 1597247
1595014 1595015
1595014 1595020
1595014 1597247
31920 31921
31920 31921
31920 31922
31920 33914
31920 31922
31920 33914
1595015 1595016
1595015 1597247
1595015 1597247
1595015 1595016
31921 33915
31921 33915
1595016 1595017
1595016 1595026
1595016 1595017
1595016 1595026
31922 31923
31922 31924
31922 31923
31922 31924
1595017 1595018
1595017 1595029
1595017 1595018
1595017 1595029
1595018 1595019
1595018 1595028
1595018 1595019
1595018 1595028
31924 31925
31924 33962
31924 31925
31924 33962
1595019 1595020
1595019 1595020
1595019 1595027
1595019 1595027
31925 31926
31925 34002
31925 31926
31925 34002
1595020 1606261
1595020 1606261
31926 31927
31926 31928
31926 31927
31926 31928
31928 31929
31928 31929
29574 29580
29574 29575
29574 29580
29574 30830
29574 29575
29574 30830
29575 29576
29575 34949
29575 29576
29575 34949
29576 29577
29576 29578
29576 29577
29576 29578
29578 29579
29578 34953
29578 29579
29578 34953
29579 29580
29579 33703
29579 29580
29579 33703
1595026 1595027
1595026 1610485
1595026 1595027
1595026 1610485
1595027 1596127
1595027 1596127
31933 31934
31933 31934
31933 33870
31933 37222
31933 37222
31933 33870
31934 32198
31934 32198
31935 31936
31935 31936
31937 31938
31937 36869
31937 31938
31937 36869
31938 31939
31938 36873
31938 31939
31938 36873
31939 31940
31939 36876
31939 31940
31939 36876
31943 36883
31943 36883
1602515 1602516
1602515 1602516
1602516 1608791
1602516 1608791
1602516 1610531
1602516 1610531
1602562 1602563
1602562 1602564
1602562 1602565
1602562 1602563
1602562 1602564
1602562 1602565
1602563 1604782
1602563 1604782
1602563 1604785
1602563 1604785
1602564 1602565
1602564 1610044
1602564 1602565
1602564 1610044
1602565 1604788
1602565 1604788
31976 31977
31976 31977
31976 31979
31976 41663
31976 31979
31976 41663
31978 31979
31978 31979
29832 29833
29832 29833
29833 40821
29833 40821
29833 41028
29833 41028
1602880 1602881
1602880 1603380
1602880 1602881
1602880 1603380
1602881 1603389
1602881 1603527
1602881 1603380
1602881 1603389
1602881 1603527
1602881 1603380
30092 30093
30092 30094
30092 40966
30092 30093
30092 30094
30092 40966
30093 30095
30093 30095
30093 33730
30093 33731
30093 33730
30093 33731
30094 30095
30094 30095
30094 32807
30094 32807
30095 32803
30095 32803
30133 30134
30133 30134
30134 30135
30134 30135
30135 36723
30135 30136
30135 36723
30135 30136
30136 36722
30136 30137
30136 36722
30136 30137
30137 36721
30137 36721
30183 30184
30183 30329
30183 30184
30183 30329
30184 30339
30184 30185
30184 30339
30184 30347
30184 30185
30184 30347
30185 30186
30185 30186
30186 30313
30186 30313
30189 37433
30189 37433
30286 30287
30286 30292
30286 30287
30286 30292
30287 30288
30287 30288
30288 30289
30288 30307
30288 30309
30288 30289
30288 30307
30288 30309
30289 30290
30289 30296
30289 30290
30289 30296
30290 30291
30290 30296
30290 30296
30290 30291
30291 30292
30291 30292
30291 30301
30291 30301
30292 30301
30292 30301
30295 30338
30295 30338
30297 30298
30297 30300
30297 30298
30297 30300
30298 30299
30298 30334
30298 30299
30298 30334
30299 30300
30299 30300
30300 37436
30300 37436
30302 30303
30302 30306
30302 30308
30302 30303
30302 30306
30302 30308
30303 30311
30303 30311
30307 30308
30307 30310
30307 30308
30307 30310
30308 30309
30308 30309
30310 30311
30310 30311
30311 39022
30311 39022
30313 30328
30313 30352
30313 30328
30313 30352
30321 30328
30321 30328
30328 30375
30328 30375
30329 30336
30329 30336
30334 30345
30334 30335
30334 30336
30334 30345
30334 30336
30334 30335
30336 30337
30336 30344
30336 30337
30336 30344
30339 30363
30339 30363
30345 30857
30345 39023
30345 39023
30345 30857
30347 30987
30347 30987
30349 30350
30349 31013
30349 30350
30349 31013
30350 30351
30350 31008
30350 31012
30350 30351
30350 31008
30350 31012
30351 30352
30351 30375
30351 30352
30351 30375
30351 31008
30351 31008
30352 30353
30352 30353
30362 30363
30362 30363
30363 30987
30363 30987
30364 30365
30364 30999
30364 31006
30364 30365
30364 30999
30364 31006
30365 30366
30365 39279
30365 30366
30365 39279
30366 30367
30366 30367
30367 30368
30367 39278
30367 30368
30367 39278
30368 30369
30368 30369
30369 30370
30369 30370
30369 39277
30369 39277
30370 30996
30370 30996
30375 30376
30375 31009
30375 30376
30375 31009
30376 30377
30376 30679
30376 30377
30376 30679
30382 30679
30382 30679
1603248 1603249
1603248 1603249
1603248 1606250
1603248 1606250
1603249 1603250
1603249 1603250
1603251 1603576
1603251 1606296
1603251 1606296
1603251 1603576
1603252 1603390
1603252 1603260
1603252 1603390
1603252 1603260
1603253 1603254
1603253 1603254
1603253 1603482
1603253 1604524
1603253 1603482
1603253 1604524
1603254 1603255
1603254 1604524
1603254 1604524
1603254 1603255
1603255 1603256
1603255 1603256
1603256 1603257
1603256 1609425
1603256 1603257
1603256 1609425
1603257 1603258
1603257 1603259
1603257 1603258
1603257 1603259
1603259 1603387
1603259 1603260
1603259 1603260
1603259 1603387
1603282 1603672
1603282 1603672
1603302 1603902
1603302 1611142
1603302 1603902
1603302 1611142
1603331 1603332
1603331 1603334
1603331 1604224
1603331 1603332
1603331 1603334
1603331 1604224
1603332 1603333
1603332 1609490
1603332 1603333
1603332 1609490
1603333 1603350
1603333 1604226
1603333 1603350
1603333 1604226
1603334 1603335
1603334 1609498
1603334 1603335
1603334 1609498
1603335 1603336
1603335 1609487
1603335 1603336
1603335 1609487
1603336 1603337
1603336 1609486
1603336 1603337
1603336 1609486
1603337 1603338
1603337 1609484
1603337 1603338
1603337 1609484
1603338 1609935
1603338 1609935
1603341 1609963
1603341 1603342
1603341 1603342
1603341 1603343
1603341 1609963
1603341 1603343
1603343 1609935
1603343 1603344
1603343 1603463
1603343 1609935
1603343 1603344
1603343 1603463
1603344 1603345
1603344 1607716
1603344 1603345
1603344 1607716
1603345 1603346
1603345 1604148
1603345 1604151
1603345 1603346
1603345 1604151
1603345 1604148
1603346 1603347
1603346 1604125
1603346 1603347
1603346 1604125
1603347 1603348
1603347 1604124
1603347 1603348
1603347 1604124
1603348 1603349
1603348 1603351
1603348 1603349
1603348 1603351
1603349 1603350
1603349 1603350
1603350 1603351
1603350 1603351
1603351 1604124
1603351 1604124
1603352 1603353
1603352 1603359
1603352 1604166
1603352 1603353
1603352 1604166
1603352 1603359
1603353 1603354
1603353 1604141
1603353 1603354
1603353 1604141
1603354 1603355
1603354 1608369
1603354 1603355
1603354 1608369
1603355 1603356
1603355 1603356
1603356 1603358
1603356 1608197
1603356 1608197
1603356 1603358
1603357 1603358
1603357 1603359
1603357 1604053
1603357 1604053
1603357 1603359
1603357 1603358
1603358 1603572
1603358 1603572
1603359 1604041
1603359 1604223
1603359 1604041
1603359 1604223
1603363 1603367
1603363 1603367
1603367 1610699
1603367 1610699
1603380 1603635
1603380 1603635
1603388 1603389
1603388 1603389
1603388 1603547
1603388 1603911
1603388 1603547
1603388 1603911
1603389 1603526
1603389 1603526
1603390 1603391
1603390 1603391
1603390 1603486
1603390 1603486
1603391 1608640
1603391 1608640
1603432 1603433
1603432 1603434
1603432 1604191
1603432 1603433
1603432 1603434
1603432 1604191
1603433 1604195
1603433 1604195
1603434 1603435
1603434 1604126
1603434 1604204
1603434 1603435
1603434 1604204
1603434 1604126
1603435 1603436
1603435 1603660
1603435 1604196
1603435 1603436
1603435 1604196
1603435 1603660
1603436 1603660
1603436 1604205
1603436 1604222
1603436 1603660
1603436 1604205
1603436 1604222
1603442 1603443
1603442 1603443
1603442 1607298
1603442 1607298
1603443 1607299
1603443 1607299
1603446 1603447
1603446 1603484
1603446 1604616
1603446 1604847
1603446 1603447
1603446 1604847
1603446 1603484
1603446 1604616
1603447 1610038
1603447 1610050
1603447 1610038
1603447 1610050
1603448 1603450
1603448 1603449
1603448 1603450
1603448 1608520
1603448 1603449
1603448 1608520
1603449 1604039
1603449 1604039
1603450 1603451
1603450 1607721
1603450 1603451
1603450 1607721
1603451 1604040
1603451 1604040
1603452 1603453
1603452 1603472
1603452 1606327
1603452 1607873
1603452 1603453
1603452 1603472
1603452 1606327
1603452 1607873
1603453 1603454
1603453 1606481
1603453 1603454
1603453 1606481
1603454 1603455
1603454 1603456
1603454 1603455
1603454 1603456
1603456 1603457
1603456 1606480
1603456 1603457
1603456 1606480
1603457 1603458
1603457 1606479
1603457 1603458
1603457 1606479
1603458 1603459
1603458 1606478
1603458 1603459
1603458 1606478
1603459 1603460
1603459 1603471
1603459 1603460
1603459 1603471
1603463 1609955
1603463 1609962
1603463 1609955
1603463 1609962
1603468 1603469
1603468 1607715
1603468 1603469
1603468 1607715
1603469 1607716
1603469 1608197
1603469 1607716
1603469 1608197
1603471 1603472
1603471 1603472
1603471 1603531
1603471 1603531
1603472 1603537
1603472 1603540
1603472 1603537
1603472 1603540
1603473 1603474
1603473 1603478
1603473 1604626
1603473 1604633
1603473 1603474
1603473 1604633
1603473 1604626
1603473 1603478
1603474 1603475
1603474 1603476
1603474 1604284
1603474 1603475
1603474 1604284
1603474 1603476
1603475 1603476
1603475 1604637
1603475 1604638
1603475 1603476
1603475 1604637
1603475 1604638
1603476 1612023
1603476 1612023
1603477 1603478
1603477 1612023
1603477 1603478
1603477 1603676
1603477 1604635
1603477 1612023
1603477 1604635
1603477 1603676
1603478 1612023
1603478 1612024
1603478 1612023
1603478 1612024
1603479 1603480
1603479 1603481
1603479 1604103
1603479 1604228
1603479 1603480
1603479 1603481
1603479 1604228
1603479 1604103
1603480 1603483
1603480 1603483
1603480 1604617
1603480 1604617
1603481 1603482
1603481 1603482
1603481 1604232
1603481 1604232
1603483 1603486
1603483 1603486
1603484 1603485
1603484 1604478
1603484 1603485
1603484 1604478
1603486 1604614
1603486 1604614
1603504 1603505
1603504 1603506
1603504 1603505
1603504 1603506
1603505 1603506
1603505 1603509
1603505 1603506
1603505 1603509
1603506 1607842
1603506 1603507
1603506 1603507
1603506 1607842
1603507 1603508
1603507 1603508
1603508 1603509
1603508 1603509
1603508 1607210
1603508 1607210
1603509 1607217
1603509 1607217
1603526 1607719
1603526 1603527
1603526 1603527
1603526 1607719
1603526 1607735
1603526 1607735
1603527 1603561
1603527 1603561
1603528 1603529
1603528 1603530
1603528 1603529
1603528 1603530
1603529 1603530
1603529 1603607
1603529 1603530
1603529 1603607
1603530 1603563
1603530 1603563
1603531 1603532
1603531 1610048
1603531 1603532
1603531 1610048
1603532 1603533
1603532 1603533
1603532 1608639
1603532 1608639
1603533 1608638
1603533 1608638
1603534 1603535
1603534 1606307
1603534 1603535
1603534 1606307
1603535 1603536
1603535 1603536
1603536 1603537
1603536 1603537
1603536 1603567
1603536 1603567
1603537 1603538
1603537 1603541
1603537 1603538
1603537 1603541
1603539 1603540
1603539 1603540
1603539 1603546
1603539 1603629
1603539 1603546
1603539 1603629
1603540 1606257
1603540 1607874
1603540 1607874
1603540 1606257
1603541 1603577
1603541 1603542
1603541 1603577
1603541 1603542
1603542 1603543
1603542 1606258
1603542 1603543
1603542 1606258
1603543 1603544
1603543 1603544
1603544 1603546
1603544 1603545
1603544 1603546
1603544 1603545
1603546 1603629
1603546 1606258
1603546 1603629
1603546 1606258
30679 30680
30679 31009
30679 30680
30679 31009
30680 31011
30680 31011
1603550 1615092
1603550 1615092
1603549 1603550
1603549 1603550
1603558 1603559
1603558 1603617
1603558 1603559
1603558 1603617
1603559 1603560
1603559 1603560
1603559 1603617
1603559 1603617
1603560 1603561
1603560 1603724
1603560 1603561
1603560 1603724
1603561 1603635
1603561 1603562
1603561 1603635
1603561 1603562
1603562 1603563
1603562 1603563
1603563 1603564
1603563 1603564
1603567 1606307
1603567 1603568
1603567 1603569
1603567 1606307
1603567 1603568
1603567 1603569
1603569 1606307
1603569 1603570
1603569 1603792
1603569 1606307
1603569 1603570
1603569 1603792
1603570 1603574
1603570 1603792
1603570 1603792
1603570 1603574
1603571 1603572
1603571 1603572
1603571 1603573
1603571 1604074
1603571 1604080
1603571 1603573
1603571 1604080
1603571 1604074
1603574 1603575
1603574 1603575
1603575 1603576
1603575 1603792
1603575 1603576
1603575 1603792
1603576 1603577
1603576 1606296
1603576 1603577
1603576 1606296
1603598 1603724
1603598 1603724
1603603 1603604
1603603 1603605
1603603 1603628
1603603 1607714
1603603 1603604
1603603 1603605
1603603 1603628
1603603 1607714
1603604 1603614
1603604 1603616
1603604 1604123
1603604 1603616
1603604 1603614
1603604 1604123
1603605 1603627
1603605 1610039
1603605 1603627
1603605 1610039
1603607 1603608
1603607 1603634
1603607 1603608
1603607 1603634
1603608 1603609
1603608 1603609
1603609 1603634
1603609 1603610
1603609 1603634
1603609 1603610
1603610 1603611
1603610 1603666
1603610 1603695
1603610 1603611
1603610 1603695
1603610 1603666
1603611 1603612
1603611 1603715
1603611 1603612
1603611 1603715
1603612 1603613
1603612 1603713
1603612 1603613
1603612 1603713
1603613 1603614
1603613 1603614
1603613 1603728
1603613 1603728
1603614 1603615
1603614 1603727
1603614 1603615
1603614 1603727
1603615 1603616
1603615 1603616
1603624 1603628
1603624 1603628
1603628 1609958
1603628 1609958
1603629 1606257
1603629 1606257
1603634 1603635
1603634 1603635
1603634 1603641
1603634 1603641
1603636 1603637
1603636 1603638
1603636 1609279
1603636 1603637
1603636 1603638
1603636 1609279
1603638 1603639
1603638 1603640
1603638 1603639
1603638 1603640
1603640 1603641
1603640 1603641
1603640 1603717
1603640 1603717
1603641 1603716
1603641 1603716
1603653 1603654
1603653 1603655
1603653 1603702
1603653 1603703
1603653 1603654
1603653 1603655
1603653 1603702
1603653 1603703
1603654 1603655
1603654 1609463
1603654 1603655
1603654 1609463
1603660 1603661
1603660 1603662
1603660 1604192
1603660 1607718
1603660 1603661
1603660 1603662
1603660 1604192
1603660 1607718
1603661 1604223
1603661 1603662
1603661 1604193
1603661 1604223
1603661 1603662
1603661 1604193
1603662 1604222
1603662 1604222
1603666 1603667
1603666 1603668
1603666 1603667
1603666 1603668
1603667 1603668
1603667 1603697
1603667 1603668
1603667 1603697
1603668 1603698
1603668 1603698
1603669 1604204
1603669 1604126
1603669 1603670
1603669 1603671
1603669 1604126
1603669 1604204
1603669 1603670
1603669 1603671
1603670 1604204
1603670 1603673
1603670 1603684
1603670 1604204
1603670 1604354
1603670 1603673
1603670 1603684
1603670 1604354
1603671 1603672
1603671 1603672
1603671 1604129
1603671 1604129
1603672 1604239
1603672 1604239
1603674 1603675
1603674 1604227
1603674 1610033
1603674 1603675
1603674 1604227
1603674 1610033
1603675 1604232
1603675 1604232
1603676 1603677
1603676 1604471
1603676 1604641
1603676 1603677
1603676 1604471
1603676 1604641
1603677 1604635
1603677 1604101
1603677 1604635
1603677 1604101
1603680 1603681
1603680 1603681
1603681 1604224
1603681 1603682
1603681 1604224
1603681 1603682
1603682 1603684
1603682 1603683
1603682 1603684
1603682 1603683
1603684 1603685
1603684 1603685
30828 30830
30828 34949
30828 30829
30828 30830
30828 34949
30828 30829
1603693 1603724
1603693 1603724
30829 30832
30829 33711
30829 39672
30829 30832
30829 33711
30829 39672
30830 30831
30830 30831
30831 40956
30831 30832
30831 30832
30831 40956
30832 32802
30832 32802
1603696 1603706
1603696 1604068
1603696 1603706
1603696 1604068
1603695 1603696
1603695 1603715
1603695 1603715
1603695 1603696
1603701 1603702
1603701 1603702
1603701 1603726
1603701 1603726
1603702 1603725
1603702 1603725
1603698 1603699
1603698 1603700
1603698 1603699
1603698 1603700
1603699 1603700
1603699 1603700
1603700 1603701
1603700 1603701
1603703 1603704
1603703 1604060
1603703 1603704
1603703 1604060
1603704 1603705
1603704 1604060
1603704 1604060
1603704 1603705
1603705 1603706
1603705 1603706
1603705 1604065
1603705 1604065
1603706 1604065
1603706 1604065
1603707 1603708
1603707 1603709
1603707 1604482
1603707 1603708
1603707 1603709
1603707 1604482
1603708 1604643
1603708 1604644
1603708 1604643
1603708 1604644
1603709 1603710
1603709 1604682
1603709 1603710
1603709 1604682
1603710 1603711
1603710 1609507
1603710 1603711
1603710 1609507
1603713 1603714
1603713 1603728
1603713 1603728
1603713 1603714
1603714 1603715
1603714 1603715
1603716 1603717
1603716 1603717
1603716 1609465
1603716 1609465
1603717 1609467
1603717 1609467
30857 30858
30857 39202
30857 39203
30857 30858
30857 39202
30857 39203
30858 30859
30858 30859
30858 39201
30858 39201
30859 39200
30859 39200
1603724 1603750
1603724 1603750
1603725 1603726
1603725 1603726
1603725 1609464
1603725 1609464
30863 30864
30863 30864
30863 42808
30863 42808
30864 42809
30864 42809
1603727 1604123
1603727 1603728
1603727 1603728
1603727 1604066
1603727 1604123
1603727 1604066
30868 33703
30868 30869
30868 30870
30868 33703
30868 30869
30868 30870
30869 30870
30869 33710
30869 30870
30869 33710
30870 33694
30870 33694
30901 30902
30901 30902
30902 30903
30902 30903
30902 43433
30902 43433
30903 30904
30903 30904
30905 30906
30905 30907
30905 30906
30905 30907
30907 30908
30907 30909
30907 30908
30907 30909
30963 30964
30963 30966
30963 31046
30963 30964
30963 30966
30963 31046
30964 30965
30964 31045
30964 30965
30964 31045
30965 30966
30965 30966
30966 30967
30966 30967
30968 30969
30968 31654
30968 30969
30968 31654
1603833 1603835
1603833 1604212
1603833 1604437
1603833 1603835
1603833 1604212
1603833 1604437
30969 30981
30969 31638
30969 31656
30969 30981
30969 31638
30969 31656
1603835 1604423
1603835 1607729
1603835 1604423
1603835 1607729
30970 30971
30970 30971
30971 30972
30971 30972
30972 30973
30972 36781
30972 30973
30972 36781
1603839 1608168
1603839 1608168
30973 30974
30973 30974
30973 36780
30973 36780
30974 36782
30974 36782
30975 31627
30975 30976
30975 31627
30975 30976
30976 30977
30976 30977
30977 31626
30977 30978
30977 31626
30977 30978
30978 30979
30978 30979
30979 31626
30979 30980
30979 31626
30979 30980
30980 30981
30980 30981
30980 31060
30980 31060
30981 31623
30981 31063
30981 31623
30981 31063
30982 31654
30982 30983
30982 30986
30982 31654
30982 30983
30982 30986
30983 30984
30983 30984
30983 31653
30983 36794
30983 31653
30983 36794
30984 30985
30984 30985
30985 30986
30985 30986
30990 30991
30990 30995
30990 31004
30990 30991
30990 30995
30990 31004
30991 30992
30991 31180
30991 30992
30991 31180
30992 30993
30992 31179
30992 30993
30992 31179
30993 30994
30993 30994
30994 30995
30994 30995
30994 31010
30994 31010
30996 30997
30996 30997
30997 31000
30997 31000
30998 30999
30998 31000
30998 30999
30998 31000
30999 31006
30999 31006
31000 31006
31000 31006
31001 31029
31001 31005
31001 31002
31001 31005
31001 31029
31001 31002
31002 31028
31002 31003
31002 31028
31002 31102
31002 31003
31002 31102
31003 31004
31003 31004
31003 31183
31003 31183
31004 31005
31004 31005
31006 39280
31006 39280
31008 31009
31008 31009
31009 31011
31009 31011
31010 31013
31010 31012
31010 31011
31010 31011
31010 31012
31010 31013
31010 39274
31010 39274
31011 31027
31011 31027
31012 31013
31012 31013
31013 31014
31013 31014
31015 31016
31015 31024
31015 31087
31015 36798
31015 31016
31015 31024
31015 31087
31015 36798
31016 31017
31016 39323
31016 31017
31016 39323
31017 31018
31017 31115
31017 31018
31017 31115
31018 31019
31018 36765
31018 31019
31018 36765
31019 31020
31019 31021
31019 31020
31019 31021
31021 31022
31021 31022
31022 31023
31022 36772
31022 31023
31022 36772
31023 31024
31023 31024
31023 36796
31023 36796
31024 31088
31024 31088
31025 31027
31025 31027
31027 39274
31027 39274
31028 31103
31028 31103
1603902 1604571
1603902 1604571
1603902 1611142
1603902 1611142
31044 31046
31044 31045
31044 31045
31044 31046
31044 31052
31044 31052
31045 31053
31045 31053
31046 39300
31046 39300
31047 31050
31047 31050
31049 31050
31049 31050
31050 31092
31050 31092
31051 41796
31051 41795
31051 41795
31051 41796
31052 31053
31052 31059
31052 31053
31052 31059
31053 31058
31053 31058
31054 31055
31054 31057
31054 41181
31054 31055
31054 31057
31054 41181
31055 31056
31055 41180
31055 31056
31055 41180
31056 31057
31056 31057
31057 39298
31057 41179
31057 39298
31057 41179
31058 31059
31058 31059
31058 31073
31058 31073
31059 31074
31059 31074
31060 31061
31060 31061
31061 31062
31061 31064
31061 31062
31061 31064
31062 31066
31062 31063
31062 31063
31062 31066
31062 36778
31062 36778
31063 31624
31063 31624
31064 31065
31064 31065
31064 31620
31064 31620
31065 31619
31065 31619
31066 31618
31066 31618
31068 31078
31068 31074
31068 31069
31068 31074
31068 31078
31068 39306
31068 31069
31068 39306
31069 31070
31069 31080
31069 31070
31069 31080
31070 31071
31070 31079
31070 31071
31070 31079
31071 31072
31071 31077
31071 31072
31071 31077
31072 31073
31072 31073
31072 39301
31072 39301
31073 31074
31073 31074
31075 31076
31075 31076
31075 31083
31075 31083
31076 31077
31076 31077
31077 31078
31077 31078
31078 31079
31078 31079
31079 31080
31079 31080
31081 31082
31081 31083
31081 31083
31081 31082
31083 31615
31083 31615
31084 31085
31084 31085
31084 33534
31084 33534
31085 33535
31085 33694
31085 33694
31085 33535
31086 31087
31086 31088
31086 31087
31086 31088
31086 31220
31086 31220
31087 31675
31087 31684
31087 31684
31087 31675
31089 31090
31089 31111
31089 31139
31089 31090
31089 31111
31089 31139
31090 31092
31090 31091
31090 31092
31090 31091
31092 31093
31092 31094
31092 31093
31092 31094
31094 31095
31094 31151
31094 31095
31094 31151
31097 31098
31097 31098
31098 31099
31098 39293
31098 31099
31098 39293
31099 31100
31099 39292
31099 31100
31099 39292
31100 31101
31100 39291
31100 31101
31100 39291
31101 31102
31101 31102
31101 39290
31101 39290
31102 39289
31102 39289
31103 31113
31103 31104
31103 31113
31103 31104
31104 31105
31104 31107
31104 31105
31104 31107
31105 31106
31105 31107
31105 31107
31105 31106
31107 31108
31107 31108
31108 31113
31108 31109
31108 31113
31108 31206
31108 31109
31108 31206
31109 31111
31109 31110
31109 31111
31109 31110
31111 31124
31111 31112
31111 31124
31111 39325
31111 31112
31111 39325
31114 31119
31114 31115
31114 31115
31114 31119
31114 36766
31114 36766
31115 31116
31115 31116
31116 39322
31116 39322
31117 31118
31117 39316
31117 31118
31117 39316
31118 31119
31118 31119
31120 31121
31120 31121
31121 31122
31121 39321
31121 31122
31121 39321
31122 31124
31122 31123
31122 31124
31122 39324
31122 31123
31122 39324
31125 31225
31125 31126
31125 31130
31125 31225
31125 31812
31125 31126
31125 31130
31125 31812
31126 31127
31126 31229
31126 31127
31126 31229
31127 31128
31127 31236
31127 31128
31127 31236
31128 31129
31128 31129
31129 36798
31129 31130
31129 31130
31129 36798
31130 31226
31130 31226
31136 31137
31136 31237
31136 31137
31136 31237
31137 31138
31137 31138
31138 31139
31138 31139
31139 31140
31139 31140
31140 31141
31140 31208
31140 31141
31140 31208
31141 31142
31141 31143
31141 31142
31141 31143
1604039 1604613
1604039 1604040
1604039 1604613
1604039 1604040
1604041 1604042
1604041 1604042
1604041 1604045
1604041 1604110
1604041 1604045
1604041 1604110
1604042 1604051
1604042 1604051
31179 39271
31179 39271
31180 31181
31180 31181
1604043 1604044
1604043 1604108
1604043 1604122
1604043 1604215
1604043 1604216
1604043 1604044
1604043 1604122
1604043 1604108
1604043 1604215
1604043 1604216
31183 31184
31183 39285
31183 39288
31183 31184
31183 39285
31183 39288
31184 31185
31184 39284
31184 31185
31184 39284
31185 31186
31185 39283
31185 31186
31185 39283
31186 31187
31186 39282
31186 31187
31186 39282
1604044 1604227
1604044 1604047
1604044 1604227
1604044 1604047
1604045 1604046
1604045 1604059
1604045 1604046
1604045 1604059
1604046 1604048
1604046 1604118
1604046 1604048
1604046 1604118
1604048 1604051
1604048 1604050
1604048 1604051
1604048 1604050
1604051 1604117
1604051 1604117
1604053 1607720
1604053 1607720
1604054 1604055
1604054 1604116
1604054 1604116
1604054 1604055
1604055 1604139
1604055 1604139
1604056 1604057
1604056 1604057
1604056 1604058
1604056 1604095
1604056 1604058
1604056 1604095
1604057 1604096
1604057 1604096
1604058 1604059
1604058 1604059
1604058 1604093
1604058 1604093
1604059 1604229
1604059 1604229
1604066 1604067
1604066 1604076
1604066 1604067
1604066 1604076
1604067 1604072
1604067 1604077
1604067 1604072
1604067 1604077
1604068 1604069
1604068 1608199
1604068 1604069
1604068 1608199
1604069 1604070
1604069 1604104
1604069 1604070
1604069 1604104
1604070 1604071
1604070 1604106
1604070 1604071
1604070 1604106
1604071 1604072
1604071 1604072
1604071 1604105
1604071 1604105
1604072 1604104
1604072 1604104
31206 31207
31206 31207
1604074 1604079
1604074 1604079
1604073 1604074
1604073 1604076
1604073 1604074
1604073 1604075
1604073 1604076
1604073 1604075
1604076 1604080
1604076 1604080
31219 31220
31219 31220
31219 31676
31219 31676
1604077 1604078
1604077 1604079
1604077 1604079
1604077 1604078
1604086 1604087
1604086 1604487
1604086 1604562
1604086 1604087
1604086 1604487
1604086 1604562
1604087 1604088
1604087 1604489
1604087 1604088
1604087 1604489
1604088 1604089
1604088 1604089
1604088 1604414
1604088 1604414
1604089 1604467
1604089 1604675
1604089 1604467
1604089 1604675
31226 31227
31226 31227
31227 31678
31227 31678
31229 31230
31229 31267
31229 31230
31229 31267
1604091 1604092
1604091 1604200
1604091 1604287
1604091 1604092
1604091 1604287
1604091 1604200
1604092 1604096
1604092 1604096
1604092 1604143
1604092 1604144
1604092 1604200
1604092 1604200
1604092 1604143
1604092 1604144
1604093 1604094
1604093 1604286
1604093 1604094
1604093 1604286
1604094 1604095
1604094 1604287
1604094 1604095
1604094 1604230
1604094 1604287
1604094 1604230
31238 31269
31238 31269
1604095 1604096
1604095 1604096
1604096 1604287
1604096 1604287
1604097 1604471
1604097 1604098
1604097 1604100
1604097 1604471
1604097 1604526
1604097 1604098
1604097 1604526
1604097 1604100
1604098 1604527
1604098 1604531
1604098 1604533
1604098 1604527
1604098 1604531
1604098 1604533
1604099 1604100
1604099 1604100
1604099 1604272
1604099 1604598
1604099 1604601
1604099 1604272
1604099 1604598
1604099 1604601
1604101 1604641
1604101 1604102
1604101 1604636
1604101 1604641
1604101 1604102
1604101 1604636
1604102 1604228
1604102 1604103
1604102 1604103
1604102 1604228
1604102 1604640
1604102 1604640
1604103 1604636
1604103 1604636
1604107 1604108
1604107 1604272
1604107 1604108
1604107 1604109
1604107 1604261
1604107 1604272
1604107 1604590
1604107 1604109
1604107 1604261
1604107 1604590
1604108 1604215
1604108 1604215
1604109 1604111
1604109 1604590
1604109 1604590
1604109 1604111
1604110 1604139
1604110 1604139
1604110 1604140
1604110 1604140
1604111 1604112
1604111 1604113
1604111 1604112
1604111 1604113
1604113 1604114
1604113 1604115
1604113 1604114
1604113 1604115
1604115 1604116
1604115 1604116
1604115 1610030
1604115 1611434
1604115 1610030
1604115 1611434
1604118 1604119
1604118 1604119
1604119 1604120
1604119 1604198
1604119 1604120
1604119 1604198
1604128 1604129
1604128 1604239
1604128 1604129
1604128 1604239
1604130 1604131
1604130 1604132
1604130 1604253
1604130 1604131
1604130 1604132
1604130 1604253
1604122 1604197
1604122 1610032
1604122 1604197
1604122 1610032
1604132 1604133
1604132 1604133
1604133 1604134
1604133 1604134
1604134 1604135
1604134 1604136
1604134 1604152
1604134 1604135
1604134 1604136
1604134 1604152
31264 31508
31264 31692
31264 31265
31264 31508
31264 31692
31264 31265
31265 31269
31265 31269
31266 31267
31266 31270
31266 31267
31266 31270
31267 31268
31267 31268
31268 31811
31268 31811
31269 31506
31269 31506
1604136 1604137
1604136 1604137
1604136 1604153
1604136 1604153
1604137 1610035
1604137 1610035
1604141 1604142
1604141 1604146
1604141 1604142
1604141 1604146
1604143 1604149
1604143 1604144
1604143 1604149
1604143 1604144
1604144 1604150
1604144 1604149
1604144 1604149
1604144 1604150
1604145 1604148
1604145 1608369
1604145 1604146
1604145 1604146
1604145 1604148
1604145 1608369
1604146 1604147
1604146 1604164
1604146 1604147
1604146 1604164
1604147 1604151
1604147 1604148
1604147 1604148
1604147 1604151
1604151 1604164
1604151 1604164
1604153 1604161
1604153 1604161
1604152 1604153
1604152 1604406
1604152 1604153
1604152 1604406
1604157 1604439
1604157 1604439
1604158 1604176
1604158 1604449
1604158 1604504
1604158 1604504
1604158 1604176
1604158 1604449
1604159 1604161
1604159 1604160
1604159 1604161
1604159 1604162
1604159 1604163
1604159 1604160
1604159 1604162
1604159 1604163
1604160 1604406
1604160 1604161
1604160 1604161
1604160 1604405
1604160 1604406
1604160 1604405
1604162 1604163
1604162 1604165
1604162 1604460
1604162 1604163
1604162 1604165
1604162 1604460
1604163 1604165
1604163 1604165
1604164 1604166
1604164 1604166
1604165 1604168
1604165 1604381
1604165 1604168
1604165 1604381
1604166 1604226
1604166 1604226
1604168 1604460
1604168 1604170
1604168 1604460
1604168 1604170
1604169 1604170
1604169 1604383
1604169 1604385
1604169 1604170
1604169 1604383
1604169 1604385
1604170 1604381
1604170 1604381
1604170 1604382
1604170 1604382
1604171 1604172
1604171 1604172
1604172 1607731
1604172 1607731
1604167 1604168
1604167 1604168
1604167 1604169
1604167 1604403
1604167 1604169
1604167 1604403
1604174 1604181
1604174 1604206
1604174 1604506
1604174 1604181
1604174 1604206
1604174 1604506
1604173 1604176
1604173 1604174
1604173 1604176
1604173 1604505
1604173 1604174
1604173 1604505
1604176 1604177
1604176 1604177
1604177 1604178
1604177 1604194
1604177 1604178
1604177 1604194
1604178 1604179
1604178 1604179
1604179 1604180
1604179 1604435
1604179 1604180
1604179 1604435
1604180 1604181
1604180 1604181
1604190 1604191
1604190 1604191
1604191 1604213
1604191 1604213
1604192 1604196
1604192 1604193
1604192 1604196
1604192 1604385
1604192 1604193
1604192 1604385
1604193 1604223
1604193 1604223
1604193 1604381
1604193 1604381
1604194 1604439
1604194 1604273
1604194 1604195
1604194 1604195
1604194 1604273
1604194 1604438
1604194 1604439
1604194 1604438
1604195 1604196
1604195 1604196
1604196 1604444
1604196 1607718
1604196 1607718
1604196 1604444
1604198 1604199
1604198 1604199
1604199 1604200
1604199 1604230
1604199 1604200
1604199 1604230
1604201 1604202
1604201 1604202
31338 40941
31338 40941
1604202 1607733
1604202 1607733
1604204 1604205
1604204 1604205
1604205 1604222
1604205 1604222
1604206 1604212
1604206 1604489
1604206 1604212
1604206 1604489
1604212 1604415
1604212 1607729
1604212 1607729
1604212 1604415
1604213 1604239
1604213 1604214
1604213 1604214
1604213 1604239
1604215 1604216
1604215 1604261
1604215 1604216
1604215 1604261
1604216 1604261
1604216 1604522
1604216 1604523
1604216 1604261
1604216 1604522
1604216 1604523
1595378 1595379
1595378 1604517
1595378 1595379
1595378 1604517
1604222 1604224
1604222 1604223
1604222 1604223
1604222 1604224
1604224 1609488
1604224 1609488
1604227 1610032
1604227 1610032
1604228 1604232
1604228 1604520
1604228 1604640
1604228 1604232
1604228 1604640
1604228 1604520
1604229 1604230
1604229 1604230
1604232 1604523
1604232 1604523
1604242 1604604
1604242 1604604
1604244 1604245
1604244 1604246
1604244 1604247
1604244 1604245
1604244 1604246
1604244 1604247
1604245 1604256
1604245 1604256
1604245 1604607
1604245 1604607
1604247 1604248
1604247 1604470
1604247 1604248
1604247 1604470
1604248 1604249
1604248 1604465
1604248 1604496
1604248 1604249
1604248 1604465
1604248 1604496
1604249 1604496
1604249 1604496
1604256 1604257
1604256 1604257
1604257 1604258
1604257 1604259
1604257 1604258
1604257 1604259
1604261 1604531
1604261 1604531
1604272 1604530
1604272 1604530
1604273 1604275
1604273 1604275
1604274 1604275
1604274 1604438
1604274 1604275
1604274 1604438
1604284 1604626
1604284 1604285
1604284 1604626
1604284 1604285
1604285 1604621
1604285 1604625
1604285 1604627
1604285 1604625
1604285 1604621
1604285 1604627
1604287 1604461
1604287 1604461
31433 31434
31433 38061
31433 38061
31433 31434
31434 38059
31434 38059
31474 31509
31474 31509
31496 31497
31496 31497
31496 31507
31496 31507
31497 31509
31497 31509
31506 31507
31506 31507
31507 31508
31507 31508
31508 31509
31508 31509
1604381 1610030
1604381 1610030
1604382 1604383
1604382 1604383
1604383 1604384
1604383 1604384
1604385 1604441
1604385 1604457
1604385 1604441
1604385 1604457
1604386 1604404
1604386 1604456
1604386 1604404
1604386 1604456
1604401 1604405
1604401 1604460
1604401 1604403
1604401 1604402
1604401 1604402
1604401 1604403
1604401 1604405
1604401 1604460
1604402 1604403
1604402 1604404
1604402 1604403
1604402 1604404
1604403 1604459
1604403 1604459
1604404 1604456
1604404 1604458
1604404 1604456
1604404 1604458
1604405 1604406
1604405 1604406
1604405 1604460
1604405 1604460
1604413 1604414
1604413 1604414
1604413 1604416
1604413 1604494
1604413 1607728
1604413 1604416
1604413 1604494
1604413 1607728
1604414 1604415
1604414 1604465
1604414 1604415
1604414 1604465
1604415 1604416
1604415 1604462
1604415 1604416
1604415 1604462
1604416 1604462
1604416 1604462
1604419 1604420
1604419 1604421
1604419 1604420
1604419 1604421
1604420 1604456
1604420 1604421
1604420 1604456
1604420 1604421
1604421 1604458
1604421 1604453
1604421 1604458
1604421 1604453
1604423 1604424
1604423 1604424
1604423 1604453
1604423 1609500
1604423 1604453
1604423 1609500
1604424 1604454
1604424 1604454
1604426 1604494
1604426 1604494
1604426 1604495
1604426 1604495
1604435 1604436
1604435 1604444
1604435 1609502
1604435 1604444
1604435 1604436
1604435 1609502
1604436 1604437
1604436 1604437
1604436 1604443
1604436 1604443
1604437 1604473
1604437 1604473
1604438 1604439
1604438 1604439
1604440 1604441
1604440 1604454
1604440 1604441
1604440 1604442
1604440 1604454
1604440 1604442
1604441 1604444
1604441 1604444
1604441 1604453
1604441 1604453
1604442 1604443
1604442 1604443
1604443 1604473
1604443 1604473
1604449 1604450
1604449 1604505
1604449 1604559
1604449 1604505
1604449 1604450
1604449 1604559
1604450 1604451
1604450 1604451
1604453 1604457
1604453 1604457
1604454 1604473
1604454 1604473
1604457 1604458
1604457 1604459
1604457 1604459
1604457 1604458
1604458 1604459
1604458 1604459
1604462 1604495
1604462 1604500
1604462 1604495
1604462 1604500
1604463 1604465
1604463 1604464
1604463 1604465
1604463 1604468
1604463 1604464
1604463 1604468
1604464 1604466
1604464 1604657
1604464 1604466
1604464 1604657
1604465 1604466
1604465 1604466
1604466 1604470
1604466 1604470
1604467 1604469
1604467 1604660
1604467 1604673
1604467 1604469
1604467 1604660
1604467 1604673
1604468 1604469
1604468 1604659
1604468 1604469
1604468 1604659
1604470 1604605
1604470 1604605
1604471 1604525
1604471 1604526
1604471 1604526
1604471 1604525
1604474 1604475
1604474 1604476
1604474 1604840
1604474 1610045
1604474 1604475
1604474 1604476
1604474 1610045
1604474 1604840
1604475 1604486
1604475 1604676
1604475 1610045
1604475 1610045
1604475 1604486
1604475 1604676
1604476 1604477
1604476 1604477
1604476 1604839
1604476 1604840
1604476 1604840
1604476 1604839
1604477 1604482
1604477 1604482
1604478 1604479
1604478 1604480
1604478 1604479
1604478 1604480
1604479 1604616
1604479 1604616
1604479 1604752
1604479 1604752
31617 31622
31617 36779
31617 31622
31617 36779
1604482 1604483
1604482 1604483
1604483 1604484
1604483 1604623
1604483 1604484
1604483 1604623
1604484 1604485
1604484 1604619
1604484 1604485
1604484 1604619
1604485 1604486
1604485 1604486
1604485 1612025
1604485 1612025
1604486 1604677
1604486 1604677
1604487 1604488
1604487 1604559
1604487 1604559
1604487 1604488
1604488 1604489
1604488 1604489
1604490 1604491
1604490 1604696
1604490 1604491
1604490 1604696
1604491 1604492
1604491 1604686
1604491 1604492
1604491 1604686
1604492 1604493
1604492 1604562
1604492 1604493
1604492 1604562
1604494 1604496
1604494 1604495
1604494 1604496
1604494 1604495
1604495 1604500
1604495 1604500
1604497 1604498
1604497 1604608
1604497 1604611
1604497 1604498
1604497 1604611
1604497 1604608
1604498 1604596
1604498 1604599
1604498 1604600
1604498 1604599
1604498 1604600
1604498 1604596
31632 31633
31632 31633
31633 31634
31633 31635
31633 31634
31633 31635
31635 31636
31635 39379
31635 31636
31635 39379
1604505 1604506
1604505 1604506
1604506 1604559
1604506 1604559
31636 31637
31636 31637
31636 31873
31636 31873
31643 31644
31643 31644
1604510 1609480
1604510 1609480
31644 31645
31644 31645
31644 31649
31644 31649
31645 31648
31645 31648
31648 31656
31648 31656
31649 31650
31649 39281
31649 31650
31649 39281
31650 31651
31650 31651
31650 36786
31650 36786
31651 31652
31651 31652
31652 31653
31652 31653
31652 36785
31652 36785
31653 36811
31653 36811
31646 31647
31646 31647
31646 38060
31646 38060
31647 38059
31647 38059
31657 31671
31657 31658
31657 31671
31657 31763
31657 31658
31657 31763
31658 31659
31658 31660
31658 39374
31658 31659
31658 31660
31658 39374
31660 31661
31660 31662
31660 39373
31660 31661
31660 31662
31660 39373
31662 31663
31662 31664
31662 39370
31662 31663
31662 31664
31662 39370
31664 31665
31664 31782
31664 31665
31664 31782
31665 31666
31665 31781
31665 31875
31665 31666
31665 31781
31665 31875
31666 31667
31666 31667
1604524 1610034
1604524 1610034
1604525 1604641
1604525 1604533
1604525 1604533
1604525 1604641
1604527 1604528
1604527 1604586
1604527 1604587
1604527 1604528
1604527 1604587
1604527 1604586
1604531 1604532
1604531 1604532
1604532 1604533
1604532 1604639
1604532 1604533
1604532 1604639
1604533 1604642
1604533 1604642
31671 31764
31671 31764
31669 31757
31669 31757
31678 31679
31678 39357
31678 31679
31678 39357
31679 31681
31679 31681
31675 31676
31675 31685
31675 31676
31675 31685
31674 31675
31674 31676
31674 31675
31674 31676
31674 36803
31674 36804
31674 36803
31674 36804
31681 31682
31681 31683
31681 31682
31681 31683
31683 31684
31683 39357
31683 31684
31683 39357
31684 36797
31684 36797
31685 31686
31685 31690
31685 31686
31685 31690
31686 31687
31686 31687
31686 31690
31686 31813
31686 31690
31686 31813
31687 31688
31687 31688
31690 36801
31690 36801
31691 31692
31691 31692
31691 32113
31691 32113
1604557 1604558
1604557 1604558
1604558 1604560
1604558 1604564
1604558 1604569
1604558 1604560
1604558 1604564
1604558 1604569
1604559 1604560
1604559 1604560
1604560 1604563
1604560 1604563
1604561 1604562
1604561 1604563
1604561 1604562
1604561 1604563
1604561 1604565
1604561 1604565
1604563 1604565
1604563 1604565
1604564 1604565
1604564 1604570
1604564 1604565
1604564 1604570
1604566 1604570
1604566 1604567
1604566 1604570
1604566 1604712
1604566 1604567
1604566 1604712
1604567 1604568
1604567 1604723
1604567 1604727
1604567 1604568
1604567 1604723
1604567 1604727
1604568 1604569
1604568 1604569
1604568 1604725
1604568 1604725
1604570 1604688
1604570 1604697
1604570 1604688
1604570 1604697
1604571 1611144
1604571 1611144
31699 31721
31699 31736
31699 31721
31699 31736
31700 31701
31700 31714
31700 36815
31700 36815
31700 31714
31700 31701
31702 31703
31702 31720
31702 31703
31702 31720
31703 31720
31703 31720
31713 31815
31713 31815
31707 31708
31707 36784
31707 31708
31707 36784
31708 36783
31708 36783
31715 31716
31715 31716
31715 31717
31715 31718
31715 31717
31715 31718
31716 31718
31716 31718
31717 31719
31717 31719
31718 31719
31718 31719
1604586 1604589
1604586 1604589
31720 36817
31720 36817
31721 31737
31721 31737
1604592 1604593
1604592 1604593
1604593 1604594
1604593 1604594
1604594 1604595
1604594 1604595
1604595 1604596
1604595 1604596
1604596 1604599
1604596 1604599
31724 31734
31724 31734
31726 31727
31726 31728
31726 31731
31726 31727
31726 31728
31726 31731
31727 31793
31727 31739
31727 31739
31727 31793
31727 31817
31727 31817
31728 31729
31728 31730
31728 31729
31728 31730
1604602 1604603
1604602 1604655
1604602 1604603
1604602 1604655
1604603 1604623
1604603 1604608
1604603 1604608
1604603 1604618
1604603 1604623
1604603 1604618
31740 39379
31740 31741
31740 31742
31740 39379
31740 31741
31740 31742
31741 31873
31741 31759
31741 31873
31741 31759
31742 39380
31742 31743
31742 39380
31742 31743
31743 31744
31743 31744
31744 40419
31744 31745
31744 40419
31744 31745
1604604 1604605
1604604 1607727
1604604 1604605
1604604 1607727
1604607 1604608
1604607 1610037
1604607 1604608
1604607 1610037
1604612 1604618
1604612 1604618
31750 31751
31750 39366
31750 31751
31750 39366
1604609 1604614
1604609 1604614
1604609 1604631
1604609 1604631
31755 36783
31755 36783
31756 31757
31756 36786
31756 36786
31756 31757
1604613 1607726
1604613 1607726
31758 31875
31758 31759
31758 31875
31758 31759
1604623 1611118
1604623 1611118
31759 31874
31759 31874
31760 31764
31760 31764
31761 31762
31761 31766
31761 31777
31761 31762
31761 31766
31761 31777
31762 31763
31762 31763
31762 31770
31762 31787
31762 31770
31762 31787
31763 31773
31763 31773
1604621 1604626
1604621 1604626
1604621 1604631
1604621 1604631
31767 31768
31767 31768
1604624 1604625
1604624 1604627
1604624 1604625
1604624 1604627
31770 31786
31770 31771
31770 31786
31770 31771
31771 31772
31771 31878
31771 31772
31771 31878
31772 31773
31772 31773
31772 31880
31772 31880
31773 39368
31773 39368
1604629 1604632
1604629 1604630
1604629 1604630
1604629 1604632
1604629 1604634
1604629 1604634
1604630 1604633
1604630 1604631
1604630 1604631
1604630 1604633
1604632 1604634
1604632 1604634
1604633 1604634
1604633 1604634
1604644 1604645
1604644 1604705
1604644 1604645
1604644 1604705
1604645 1604646
1604645 1604672
1604645 1604703
1604645 1604646
1604645 1604672
1604645 1604703
31779 31878
31779 31780
31779 31783
31779 31878
31779 31780
31779 31783
31780 31781
31780 31781
1604649 1604650
1604649 1604669
1604649 1604650
1604649 1604669
1604650 1604651
1604650 1604666
1604650 1604651
1604650 1604666
31781 31873
31781 31873
1604652 1604653
1604652 1604667
1604652 1604653
1604652 1604667
1604653 1604657
1604653 1604654
1604653 1604657
1604653 1604654
31782 31783
31782 39369
31782 31783
31782 39369
31783 31880
31783 31880
1604656 1604657
1604656 1604657
1604656 1604658
1604656 1604663
1604656 1604658
1604656 1604663
1604658 1604659
1604658 1604659
1604659 1604661
1604659 1604663
1604659 1604663
1604659 1604661
1604651 1604652
1604651 1604652
31788 31789
31788 31789
31790 31792
31790 31792
31792 41163
31792 41163
1604666 1604667
1604666 1604667
31808 31809
31808 31810
31808 31809
31808 31810
31813 31814
31813 39361
31813 31814
31813 39361
1604669 1604672
1604669 1604672
1604681 1604682
1604681 1604701
1604681 1604682
1604681 1604701
1604683 1604685
1604683 1604684
1604683 1604685
1604683 1604698
1604683 1604684
1604683 1604698
1604684 1604686
1604684 1604686
1604684 1604714
1604684 1604714
1604685 1604687
1604685 1604687
1604686 1604693
1604686 1604694
1604686 1604693
1604686 1604694
1604687 1604688
1604687 1604688
1604687 1604700
1604687 1604700
1604688 1604699
1604688 1604699
1604689 1604690
1604689 1604690
1604690 1604691
1604690 1604721
1604690 1604765
1604690 1604691
1604690 1604721
1604690 1604765
1604691 1604692
1604691 1604711
1604691 1604692
1604691 1604711
1604692 1604693
1604692 1604693
1604693 1604711
1604693 1604711
31822 31823
31822 31823
31822 31839
31822 31839
1604697 1604698
1604697 1604698
1604698 1604712
1604698 1604712
1604701 1604702
1604701 1604702
1604702 1609507
1604702 1604705
1604702 1604705
1604702 1609507
31831 31836
31831 31832
31831 31836
31831 31832
1604705 1609509
1604705 1609509
1604706 1604707
1604706 1604708
1604706 1604805
1604706 1604707
1604706 1604708
1604706 1604805
1604707 1604710
1604707 1604757
1604707 1604807
1604707 1604710
1604707 1604757
1604707 1604807
1604708 1604709
1604708 1604808
1604708 1604709
1604708 1604808
1604709 1604710
1604709 1604710
1604709 1604735
1604709 1604755
1604709 1604755
1604709 1604735
1604710 1604755
1604710 1604756
1604710 1604755
1604710 1604756
1604711 1604721
1604711 1604721
1604712 1604713
1604712 1604713
1604713 1604727
1604713 1604714
1604713 1604714
1604713 1604719
1604713 1604727
1604713 1604719
1604714 1604715
1604714 1604715
1604716 1604719
1604716 1604717
1604716 1604718
1604716 1604719
1604716 1604717
1604716 1604718
1604717 1604756
1604717 1604722
1604717 1604746
1604717 1604756
1604717 1604722
1604717 1604746
1604719 1604720
1604719 1604720
31848 31849
31848 31849
1604722 1604756
1604722 1604756
1604722 1604769
1604722 1604771
1604722 1604769
1604722 1604771
1604723 1604724
1604723 1604734
1604723 1604724
1604723 1604734
1604724 1604725
1604724 1604725
1604724 1604733
1604724 1604733
1604727 1604734
1604727 1604747
1604727 1604734
1604727 1604747
1604728 1604733
1604728 1604733
31857 31858
31857 31930
31857 31858
31857 31930
31858 31859
31858 31929
31858 31859
31858 31929
31859 31860
31859 33904
31859 31860
31859 33904
1604733 1608371
1604733 1608371
1604734 1604735
1604734 1604735
31862 31863
31862 36883
31862 31863
31862 36883
1604736 1604808
1604736 1604737
1604736 1604738
1604736 1604808
1604736 1604737
1604736 1604738
1604737 1604738
1604737 1604738
1604738 1604808
1604738 1604739
1604738 1604808
1604738 1604822
1604738 1604823
1604738 1604739
1604738 1604822
1604738 1604823
1604739 1604740
1604739 1604741
1604739 1604822
1604739 1604822
1604739 1604740
1604739 1604741
1604740 1604741
1604740 1604741
1604741 1604820
1604741 1604742
1604741 1604742
1604741 1604820
1604742 1604743
1604742 1604743
31872 31906
31872 31906
1604746 1604755
1604746 1604747
1604746 1604755
1604746 1604747
1604749 1604750
1604749 1604750
1604751 1605210
1604751 1605210
31881 36865
31881 31882
31881 31883
31881 36865
31881 31883
31881 31882
1604755 1604756
1604755 1604756
1604756 1604758
1604756 1604758
1604757 1604761
1604757 1604811
1604757 1604816
1604757 1604761
1604757 1604811
1604757 1604816
1604758 1604771
1604758 1604759
1604758 1604771
1604758 1604759
1604759 1604760
1604759 1604801
1604759 1604760
1604759 1604801
1604760 1604761
1604760 1604761
1604760 1604800
1604760 1604800
1604761 1604809
1604761 1604809
1604762 1604765
1604762 1604763
1604762 1604765
1604762 1604770
1604762 1604763
1604762 1604770
1604763 1604764
1604763 1604773
1604763 1604764
1604763 1604773
1604764 1604765
1604764 1604765
1604764 1604766
1604764 1604766
1604765 1604770
1604765 1604770
1604766 1604767
1604766 1604773
1604766 1604767
1604766 1604773
1604767 1604768
1604767 1604774
1604767 1604768
1604767 1604774
1604768 1604769
1604768 1604769
1604768 1604776
1604768 1604776
1604769 1604772
1604769 1604776
1604769 1604776
1604769 1604772
1604771 1604772
1604771 1604801
1604771 1604801
1604771 1604772
1604772 1604777
1604772 1604777
1604773 1604774
1604773 1604774
1604774 1604775
1604774 1604795
1604774 1604775
1604774 1604795
1604775 1604776
1604775 1604776
1604775 1604778
1604775 1604793
1604775 1604778
1604775 1604793
1604776 1604778
1604776 1604778
1604777 1604778
1604777 1604798
1604777 1604778
1604777 1604798
1604779 1604780
1604779 1604781
1604779 1604803
1604779 1604780
1604779 1604781
1604779 1604803
1604780 1604781
1604780 1607737
1604780 1610041
1604780 1604781
1604780 1607737
1604780 1610041
1604781 1604786
1604781 1604790
1604781 1604786
1604781 1604790
31918 31919
31918 31919
31911 31912
31911 31913
31911 31912
31911 31913
1604786 1604789
1604786 1604787
1604786 1604789
1604786 1604787
1604788 1604789
1604788 1604789
1604788 1604790
1604788 1604790
31916 31917
31916 31917
31917 31918
31917 31918
1604791 1604803
1604791 1604792
1604791 1604794
1604791 1604803
1604791 1604792
1604791 1604794
1604792 1604793
1604792 1604803
1604792 1604793
1604792 1604803
1604792 1604804
1604792 1604804
1604793 1604794
1604793 1604799
1604793 1604794
1604793 1604799
1604794 1604795
1604794 1604795
1604795 1606884
1604795 1606884
1604796 1604798
1604796 1604797
1604796 1604798
1604796 1604810
1604796 1604797
1604796 1604810
1604797 1604811
1604797 1604799
1604797 1604799
1604797 1604811
1604798 1604800
1604798 1604800
1604799 1604802
1604799 1604802
1604800 1604801
1604800 1604801
1604802 1604803
1604802 1604803
31931 31932
31931 31943
31931 36886
31931 31932
31931 31943
31931 36886
31932 37223
31932 31933
31932 37223
31932 31933
31940 31941
31940 36880
31940 31941
31940 36880
31941 31942
31941 36879
31941 31942
31941 36879
31942 31943
31942 31943
31942 36882
31942 36882
31936 36870
31936 31937
31936 36870
31936 31937
1604812 1604813
1604812 1604813
1604812 1604814
1604812 1604815
1604812 1604814
1604812 1604815
1604806 1604807
1604806 1604807
1604806 1604827
1604806 1604827
1604814 1604815
1604814 1604815
1604807 1607737
1604807 1607737
31944 42356
31944 42356
1604811 1604813
1604811 1604813
1604816 1604817
1604816 1604817
1604818 1604819
1604818 1604819
1604818 1604831
1604818 1604832
1604818 1604832
1604818 1604831
1604820 1604821
1604820 1604822
1604820 1604822
1604820 1604821
1604821 1604822
1604821 1604822
1604819 1604833
1604819 1604833
1604815 1604816
1604815 1604816
1604824 1604825
1604824 1604825
1604825 1604826
1604825 1604826
1604827 1604828
1604827 1604837
1604827 1604828
1604827 1604837
1604828 1604829
1604828 1604829
1604829 1604837
1604829 1604830
1604829 1604837
1604829 1604830
1604830 1604831
1604830 1604837
1604830 1604831
1604830 1604837
1604831 1604832
1604831 1604832
1604833 1610123
1604833 1610123
1604835 1604836
1604835 1604836
1604835 1604842
1604835 1604842
1604836 1604841
1604836 1604841
1604840 1610045
1604840 1610045
1604841 1604842
1604841 1604842
1604841 1605020
1604841 1605020
1604842 1605017
1604842 1605018
1604842 1605018
1604842 1605017
1604843 1604844
1604843 1604845
1604843 1606309
1604843 1604844
1604843 1604845
1604843 1606309
1604844 1604849
1604844 1606241
1604844 1606308
1604844 1604849
1604844 1606241
1604844 1606308
1604845 1607754
1604845 1604846
1604845 1604846
1604845 1606309
1604845 1607754
1604845 1606309
1604846 1607754
1604846 1604851
1604846 1607754
1604846 1604851
1604848 1604849
1604848 1606311
1604848 1604849
1604848 1606311
1604849 1606308
1604849 1606308
31977 31978
31977 31978
31977 41674
31977 41674
1604851 1610046
1604851 1604852
1604851 1610046
1604851 1604852
31979 33761
31979 33763
31979 33761
31979 33763
31980 31981
31980 31982
31980 33729
31980 31981
31980 31982
31980 33729
31981 33726
31981 31996
31981 33726
31981 31996
31982 31983
31982 33759
31982 31983
31982 33759
31983 31984
31983 33758
31983 31984
31983 33758
31984 31985
31984 33756
31984 31985
31984 33756
31985 31986
31985 31987
31985 31986
31985 31987
31987 31988
31987 33369
31987 31988
31987 33369
31988 31989
31988 31992
31988 31989
31988 31992
31989 31990
31989 31991
31989 31990
31989 31991
31992 31993
31992 42259
31992 31993
31992 42259
31993 31994
31993 39657
31993 31994
31993 39657
31994 31995
31994 31995
31995 31996
31995 31996
31996 33763
31996 33763
32004 32005
32004 32006
32004 32007
32004 32005
32004 32006
32004 32007
32005 32012
32005 36088
32005 32012
32005 36088
32007 32008
32007 36087
32007 32008
32007 36087
32008 32009
32008 34189
32008 32009
32008 34189
32009 32010
32009 34188
32009 32010
32009 34188
32010 32011
32010 42113
32010 32011
32010 42113
32011 32012
32011 32012
32011 42190
32011 42190
32012 32013
32012 32013
32014 32015
32014 32020
32014 32060
32014 32157
32014 32015
32014 32020
32014 32060
32014 32157
32015 32016
32015 32016
32016 32017
32016 32070
32016 32017
32016 32070
32018 32019
32018 32027
32018 32019
32018 32027
32019 32020
32019 32020
32019 32111
32019 32111
32020 32193
32020 32193
32021 33857
32021 33857
32022 32023
32022 32026
32022 32112
32022 32023
32022 32026
32022 32112
32023 32027
32023 32024
32023 32027
32023 32024
32017 32018
32017 32018
32024 32025
32024 32025
32026 32114
32026 32114
32025 32026
32025 32026
32036 32037
32036 32037
32037 32038
32037 32062
32037 32218
32037 32038
32037 32218
32037 32062
32060 32061
32060 32156
32060 32212
32060 32061
32060 32156
32060 32212
32061 32062
32061 32062
32061 32222
32061 36819
32061 32222
32061 36819
32062 32218
32062 32063
32062 32218
32062 32063
32063 32064
32063 39399
32063 32064
32063 39399
32106 32107
32106 32108
32106 33742
32106 32107
32106 32108
32106 33742
32107 33730
32107 32108
32107 33730
32107 39641
32107 32108
32107 39641
32108 33734
32108 33734
32110 32111
32110 32112
32110 32111
32110 32112
32110 32160
32110 33856
32110 32160
32110 33856
32111 32191
32111 32191
32112 32113
32112 32113
32113 33857
32113 33857
1605007 1605008
1605007 1605010
1605007 1605021
1605007 1605008
1605007 1605010
1605007 1605021
1605008 1605020
1605008 1605009
1605008 1605020
1605008 1605009
1605009 1605010
1605009 1605010
1605009 1607761
1605009 1607762
1605009 1607761
1605009 1607762
1605010 1606315
1605010 1606315
1605013 1605014
1605013 1605015
1605013 1605377
1605013 1605438
1605013 1605014
1605013 1605015
1605013 1605377
1605013 1605438
1605014 1605018
1605014 1605018
1605014 1605024
1605014 1605024
1605015 1605376
1605015 1605016
1605015 1605375
1605015 1605376
1605015 1605016
1605015 1605375
1605016 1605017
1605016 1605017
1605017 1605018
1605017 1605018
32155 32156
32155 32160
32155 32156
32155 32160
32155 32200
32155 32200
32157 32158
32157 39404
32157 32158
32157 39404
32158 32159
32158 39398
32158 32159
32158 39398
1605021 1605022
1605021 1605022
1605022 1605023
1605022 1605426
1605022 1605023
1605022 1605426
1605023 1605024
1605023 1605024
1605023 1605435
1605023 1605435
32156 32181
32156 32205
32156 32205
32156 32181
1605024 1605025
1605024 1605025
32159 32160
32159 32160
32163 32229
32163 32229
32173 32174
32173 32190
32173 32208
32173 32310
32173 32174
32173 32190
32173 32310
32173 32208
32174 32297
32174 32297
32176 32178
32176 32178
32178 32179
32178 32223
32178 32179
32178 32223
32179 32180
32179 32224
32179 32180
32179 32224
32180 32181
32180 32181
32180 32211
32180 32228
32180 32211
32180 32228
32181 32182
32181 32182
32182 32183
32182 32201
32182 32183
32182 32201
32183 32184
32183 32185
32183 32184
32183 32185
32185 32186
32185 32186
32186 32203
32186 32203
32188 32189
32188 32202
32188 32202
32188 32189
32189 32190
32189 32201
32189 32190
32189 32201
32190 32209
32190 32209
32191 32192
32191 32192
32192 32193
32192 39398
32192 32193
32192 39398
32193 39404
32193 39404
32194 33856
32194 33856
32195 32196
32195 32197
32195 32313
32195 32196
32195 32197
32195 32313
32196 32197
32196 36890
32196 32197
32196 36890
32197 32312
32197 32312
32198 33870
32198 32199
32198 32200
32198 33870
32198 32200
32198 32199
32199 33869
32199 32200
32199 32200
32199 32217
32199 33869
32199 32217
32200 32204
32200 32309
32200 32204
32200 32309
32201 32203
32201 32203
32202 32203
32202 32203
32204 32205
32204 32205
32204 32304
32204 32305
32204 32305
32204 32304
32205 32210
32205 32210
32206 32210
32206 32207
32206 32210
32206 32308
32206 36822
32206 32207
32206 36822
32206 32308
32207 32208
32207 32208
32207 32316
32207 32316
32208 32209
32208 32209
32211 32212
32211 32212
32211 39403
32211 39403
32212 32222
32212 32222
32213 32214
32213 32215
32213 32298
32213 32311
32213 32214
32213 32215
32213 32298
32213 32311
32214 32217
32214 32217
32214 32317
32214 33999
32214 32317
32214 33999
1605079 1606292
1605079 1606292
32216 32217
32216 32217
32215 36890
32215 32216
32215 36890
32215 32216
32218 32221
32218 32221
32219 32220
32219 32228
32219 32221
32219 32220
32219 32221
32219 32228
32219 39401
32219 39401
32221 36821
32221 36821
32224 32228
32224 32228
32223 32224
32223 32224
32228 32229
32228 32229
32230 32231
32230 32231
32230 32292
32230 32292
32231 32262
32231 32262
32236 32263
32236 32263
32262 32263
32262 32335
32262 32263
32262 32335
32263 32326
32263 32326
32266 32267
32266 32286
32266 34078
32266 32267
32266 32286
32266 34078
32267 32268
32267 36899
32267 32268
32267 36899
32268 34037
32268 32269
32268 34037
32268 32269
32269 32270
32269 34044
32269 32270
32269 34044
32270 32271
32270 36911
32270 32271
32270 36911
32271 32272
32271 34017
32271 32272
32271 34017
32272 32273
32272 32274
32272 32273
32272 32274
32274 32275
32274 34020
32274 32275
32274 34020
32275 32276
32275 34000
32275 32276
32275 34000
32276 32277
32276 32279
32276 32277
32276 32279
32277 32278
32277 32278
32279 34000
32279 32280
32279 32281
32279 34000
32279 32280
32279 32281
32281 32282
32281 32283
32281 34069
32281 32282
32281 32283
32281 34069
32283 32284
32283 34065
32283 32284
32283 34065
32284 32285
32284 34073
32284 32285
32284 34073
32285 32286
32285 32286
32285 34072
32285 34072
32286 34079
32286 34079
32287 32297
32287 32298
32287 32288
32287 32297
32287 32298
32287 32288
32288 32289
32288 32289
32289 32298
32289 32290
32289 32298
32289 32319
32289 32290
32289 32319
32290 32335
32290 32326
32290 32291
32290 32326
32290 32335
32290 32338
32290 32291
32290 32338
32291 32292
32291 32335
32291 32292
32291 32335
32292 32293
32292 32293
32296 32297
32296 32297
32298 32318
32298 32318
32299 32300
32299 32300
32299 32303
32299 34032
32299 32303
32299 34032
32300 32301
32300 34050
32300 34051
32300 34527
32300 32301
32300 34050
32300 34051
32300 34527
32301 32302
32301 34021
32301 34527
32301 34527
32301 32302
32301 34021
32302 32303
32302 32303
32302 34030
32302 34030
32304 32305
32304 32305
32305 36822
32305 36822
32306 32309
32306 32307
32306 32309
32306 32307
32307 32308
32307 32308
32308 32309
32308 32309
32310 32311
32310 32311
32312 32316
32312 32316
32313 32314
32313 32316
32313 32316
32313 32314
32314 32316
32314 32315
32314 32316
32314 32315
32317 32318
32317 32336
32317 33999
32317 33999
32317 32318
32317 32336
32318 32319
32318 32319
32319 32338
32319 32338
32320 32326
32320 32321
32320 32326
32320 32339
32320 32349
32320 32321
32320 32339
32320 32349
32321 32322
32321 32323
32321 32334
32321 32322
32321 32323
32321 32334
32336 34017
32336 32337
32336 32340
32336 34017
32336 32337
32336 32340
32337 32338
32337 32338
32337 32341
32337 32341
32338 32339
32338 32339
32339 32341
32339 34006
32339 32341
32339 34006
32340 32341
32340 34027
32340 32341
32340 34027
32349 32350
32349 34008
32349 32350
32349 34008
32350 34007
32350 34007
1605252 1605258
1605252 1605258
1605252 1605358
1605252 1605358
1605261 1605262
1605261 1605372
1605261 1605262
1605261 1605372
1605262 1605358
1605262 1605358
32420 32421
32420 32421
32421 32433
32421 32433
32421 42799
32421 42799
32422 32423
32422 32423
32423 32424
32423 32424
32424 32425
32424 32425
32425 32426
32425 32427
32425 32426
32425 32427
32427 32429
32427 32428
32427 32429
32427 32428
32429 42803
32429 42803
32433 42800
32433 42800
1605358 1605359
1605358 1605359
1605359 1605361
1605359 1605361
1605360 1605361
1605360 1605370
1605360 1605361
1605360 1605370
1605361 1605369
1605361 1605369
1605369 1605371
1605369 1605371
1605369 1605374
1605369 1605374
1605370 1605371
1605370 1605371
1605372 1605373
1605372 1605378
1605372 1605373
1605372 1605378
1605373 1605377
1605373 1605375
1605373 1605375
1605373 1605377
1605374 1605376
1605374 1605375
1605374 1605375
1605374 1605376
1605376 1609560
1605376 1609560
1605377 1605443
1605377 1605443
1605378 1605445
1605378 1605445
1605426 1605427
1605426 1605427
1605426 1605435
1605426 1606313
1605426 1605435
1605426 1606313
1605427 1605428
1605427 1606314
1605427 1605428
1605427 1606314
1605428 1605429
1605428 1605454
1605428 1605429
1605428 1605454
1605429 1605430
1605429 1605440
1605429 1605430
1605429 1605440
1605430 1605431
1605430 1605434
1605430 1605431
1605430 1605434
1605431 1605432
1605431 1605433
1605431 1605432
1605431 1605433
1605434 1605435
1605434 1605435
1605434 1605436
1605434 1605436
1605436 1605438
1605436 1605437
1605436 1605438
1605436 1605437
1605438 1605439
1605438 1605439
1605440 1605441
1605440 1605448
1605440 1605441
1605440 1605448
1605441 1605442
1605441 1605453
1605441 1605442
1605441 1605453
1605442 1605443
1605442 1605443
1605442 1605447
1605442 1605447
1605443 1605444
1605443 1605444
1605445 1605446
1605445 1605446
1605446 1605448
1605446 1605455
1605446 1605448
1605446 1605455
1605447 1605448
1605447 1605453
1605447 1605448
1605447 1605453
1605454 1605455
1605454 1605506
1605454 1605455
1605454 1605506
1605455 1605456
1605455 1605456
1605491 1605492
1605491 1605492
1605492 1605497
1605492 1609628
1605492 1605497
1605492 1609628
1605506 1611256
1605506 1611256
32665 32695
32665 32696
32665 32696
32665 32695
32687 32688
32687 32698
32687 34551
32687 32688
32687 32698
32687 34551
32688 32689
32688 34542
32688 39855
32688 32689
32688 34542
32688 39855
32689 32690
32689 32691
32689 32690
32689 32691
32695 32696
32695 32696
32696 32697
32696 32697
32697 34021
32697 32698
32697 32698
32697 34021
32698 34527
32698 34021
32698 34021
32698 34527
32711 32712
32711 41575
32711 32712
32711 41575
32713 32714
32713 32935
32713 32714
32713 32935
32714 42918
32714 42920
32714 42918
32714 42920
32715 32732
32715 32716
32715 32732
32715 32744
32715 32716
32715 32744
32716 32717
32716 32743
32716 40606
32716 32717
32716 32743
32716 40606
32717 32718
32717 32721
32717 32959
32717 32718
32717 32721
32717 32959
32718 32719
32718 32720
32718 32719
32718 32720
32721 32722
32721 32727
32721 32963
32721 32722
32721 32727
32721 32963
32722 32723
32722 32726
32722 32723
32722 32726
32723 32724
32723 32725
32723 32724
32723 32725
32726 32727
32726 32727
32727 32728
32727 32728
32728 32729
32728 32944
32728 32944
32728 32729
32729 32730
32729 32922
32729 32730
32729 32922
32730 32731
32730 37260
32730 32731
32730 37260
32731 32732
32731 32732
32731 37160
32731 37160
32732 37160
32732 37160
32733 37259
32733 37259
32734 32735
32734 32736
32734 33325
32734 32735
32734 32736
32734 33325
32735 32739
32735 33325
32735 33713
32735 33325
32735 32739
32735 33713
32736 32737
32736 42917
32736 32737
32736 42917
32737 32738
32737 42913
32737 32738
32737 42913
32738 32739
32738 32739
32738 42914
32738 42916
32738 42914
32738 42916
32739 33719
32739 33719
32740 32741
32740 32747
32740 32748
32740 38224
32740 32741
32740 32747
32740 32748
32740 38224
32741 32743
32741 32742
32741 32743
32741 33810
32741 33811
32741 32742
32741 33810
32741 33811
32743 32970
32743 33810
32743 33810
32743 32970
32744 32745
32744 32745
32745 32747
32745 32746
32745 32747
32745 32746
32747 38222
32747 38222
32749 32750
32749 32755
32749 32931
32749 32750
32749 32755
32749 32931
32750 32751
32750 32751
32750 32921
32750 32921
32751 32920
32751 32923
32751 32920
32751 32923
32752 32753
32752 37258
32752 32753
32752 37258
32753 32754
32753 37257
32753 32754
32753 37257
32754 32755
32754 32755
32756 41767
32756 32757
32756 32757
32756 41767
32757 40826
32757 40826
32758 32759
32758 32760
32758 34717
32758 32759
32758 32760
32758 34717
32759 41439
32759 32760
32759 41439
32759 32760
32760 42485
32760 42485
32760 42515
32760 42515
32761 32762
32761 32763
32761 32762
32761 32763
32762 32765
32762 32773
32762 32789
32762 32765
32762 32773
32762 32789
32763 32788
32763 32764
32763 32788
32763 41074
32763 32764
32763 41074
32764 32765
32764 32765
32764 39490
32764 39490
32766 32767
32766 32767
32767 32768
32767 32769
32767 32772
32767 32768
32767 32769
32767 32772
32768 32769
32768 32769
32769 32770
32769 32770
32770 32771
32770 32771
32770 32776
32770 32776
32771 39488
32771 39488
32772 32773
32772 32773
32773 32774
32773 32774
32774 32775
32774 32790
32774 32775
32774 32790
32775 32789
32775 32776
32775 32776
32775 32789
32776 39486
32776 39486
32777 32778
32777 32834
32777 32778
32777 32834
32778 32779
32778 32780
32778 32779
32778 32780
32780 32781
32780 32782
32780 32833
32780 32781
32780 32782
32780 32833
32782 32783
32782 32832
32782 32783
32782 32832
32783 32784
32783 32831
32783 32784
32783 32831
32784 32785
32784 32786
32784 32785
32784 32786
32786 32788
32786 32787
32786 32788
32786 32787
32788 41073
32788 41073
32789 39489
32789 39489
32791 32792
32791 32792
32791 32793
32791 41612
32791 32793
32791 41612
32792 32793
32792 32793
32794 32795
32794 32796
32794 32956
32794 39213
32794 32795
32794 32796
32794 32956
32794 39213
32795 32796
32795 42278
32795 32796
32795 42278
32796 42288
32796 42291
32796 42291
32796 42288
32797 32798
32797 32799
32797 32800
32797 32798
32797 32799
32797 32800
32798 33711
32798 32811
32798 33711
32798 32811
32800 32802
32800 32801
32800 32802
32800 32801
32802 32803
32802 33711
32802 32803
32802 33711
32803 32804
32803 32804
32804 32805
32804 32805
32805 32806
32805 32806
32807 32808
32807 32809
32807 32808
32807 32809
32809 32810
32809 39640
32809 32810
32809 39640
32810 32811
32810 32811
32810 39676
32810 39677
32810 39676
32810 39677
32811 32812
32811 39673
32811 32812
32811 39673
32812 32813
32812 32814
32812 32813
32812 32814
32818 32819
32818 32862
32818 32819
32818 32862
32819 32820
32819 32821
32819 32859
32819 32820
32819 32821
32819 32859
32821 32822
32821 32858
32821 32822
32821 32858
32822 32823
32822 32824
32822 32823
32822 32824
32824 32825
32824 39505
32824 32825
32824 39505
32825 32826
32825 32827
32825 32849
32825 32826
32825 32827
32825 32849
32827 32828
32827 32851
32827 32828
32827 32851
32828 32830
32828 32829
32828 32830
32828 32829
32830 39503
32830 39503
32834 32835
32834 32837
32834 32835
32834 32837
32835 32836
32835 32837
32835 32837
32835 32836
32837 32838
32837 32838
32838 32839
32838 32840
32838 32839
32838 32840
32840 32841
32840 32843
32840 32841
32840 32843
32841 32842
32841 32843
32841 32843
32841 32842
32843 32844
32843 32844
32844 32845
32844 32863
32844 32845
32844 32863
32849 32850
32849 39506
32849 32850
32849 39506
32850 39504
32850 32851
32850 32851
32850 39504
32852 32853
32852 32853
32853 32854
32853 32854
32853 36954
32853 36954
32855 32865
32855 41348
32855 32856
32855 32865
32855 41348
32855 32856
32856 32857
32856 40830
32856 32857
32856 40830
32857 32858
32857 39506
32857 32858
32857 39506
32859 32860
32859 32861
32859 32860
32859 32861
32861 32862
32861 32862
32861 32868
32861 32868
32863 32864
32863 32864
32864 32865
32864 32865
32869 40831
32869 32870
32869 32871
32869 40831
32869 32870
32869 32871
32870 32873
32870 42706
32870 32873
32870 42706
32871 40831
32871 32872
32871 40831
32871 40836
32871 32872
32871 40836
32872 32873
32872 32873
32872 40837
32872 40839
32872 40837
32872 40839
32874 32875
32874 32875
32874 32880
32874 32882
32874 32880
32874 32882
32875 32876
32875 32876
32876 32877
32876 33262
32876 42032
32876 32877
32876 33262
32876 42032
32877 32878
32877 41555
32877 32878
32877 41555
32878 32880
32878 32879
32878 32880
32878 32879
32880 32881
32880 32881
32883 32884
32883 32884
32883 33269
32883 33269
32884 41612
32884 41612
32885 33715
32885 32886
32885 33715
32885 33717
32885 32886
32885 33717
32886 41695
32886 41695
32886 42125
32886 42125
32887 32888
32887 33716
32887 33718
32887 32888
32887 33718
32887 33716
32888 40826
32888 40825
32888 40826
32888 40825
32889 32890
32889 32892
32889 41765
32889 32890
32889 32892
32889 41765
32890 32891
32890 32909
32890 41766
32890 32891
32890 41766
32890 32909
32891 32892
32891 32892
32891 32895
32891 41768
32891 32895
32891 41768
32892 32895
32892 32895
32893 32894
32893 32894
32895 32896
32895 32896
32896 41767
32896 39508
32896 39509
32896 41767
32896 42123
32896 39508
32896 39509
32896 42123
32897 32898
32897 32901
32897 33330
32897 32898
32897 32901
32897 33330
32898 32899
32898 32899
32899 33316
32899 32900
32899 33316
32899 32900
32900 32901
32900 32901
32900 33306
32900 33306
32901 33305
32901 33337
32901 33305
32901 33337
32902 32903
32902 32918
32902 36838
32902 32903
32902 36838
32902 32918
32903 32917
32903 32917
32904 32918
32904 32917
32904 32905
32904 32906
32904 32917
32904 32918
32904 42124
32904 32905
32904 32906
32904 42124
32905 41766
32905 32906
32905 41766
32905 41772
32905 32906
32905 41772
32906 41765
32906 41765
32906 42124
32906 42124
32907 32908
32907 33266
32907 32908
32907 33266
32909 32910
32909 32911
32909 32910
32909 32911
32910 32911
32910 41770
32910 32911
32910 41770
32911 41769
32911 41769
32912 42130
32912 32913
32912 39733
32912 42130
32912 32913
32912 39733
32913 32914
32913 32914
32913 39732
32913 39732
32915 32916
32915 32916
32917 41773
32917 32918
32917 32918
32917 41773
32919 32921
32919 32920
32919 32920
32919 32921
32919 37253
32919 37253
32920 32922
32920 32922
32921 32931
32921 32931
32921 37254
32921 37254
32922 32923
32922 32923
32923 32925
32923 32925
32924 32944
32924 37280
32924 32944
32924 37280
32925 32939
32925 32927
32925 32926
32925 32927
32925 32939
32925 32926
32926 32927
32926 32927
32926 32928
32926 32928
32927 40880
32927 40880
32928 32939
32928 32929
32928 32929
32928 32930
32928 32939
32928 32930
32931 37256
32931 37256
32932 32933
32932 32938
32932 33772
32932 32933
32932 32938
32932 33772
32933 32934
32933 33771
32933 33820
32933 32934
32933 33771
32933 33820
32934 32935
32934 33810
32934 32935
32934 33810
32934 33815
32934 33815
32935 32936
32935 33813
32935 32936
32935 33813
32936 32937
32936 41597
32936 32937
32936 41597
32937 32938
32937 32938
32937 41596
32937 41596
32938 43198
32938 43198
32940 32941
32940 33719
32940 32941
32940 32943
32940 33719
32940 33721
32940 32943
32940 33721
32942 32943
32942 33714
32942 32943
32942 33714
32943 33713
32943 33713
32944 32962
32944 32962
32945 32946
32945 32952
32945 33816
32945 32946
32945 32952
32945 33816
32946 32947
32946 33816
32946 33816
32946 32947
32947 32948
32947 33827
32947 33847
32947 32948
32947 33827
32947 33847
32948 32949
32948 32949
32948 33827
32948 34693
32948 33827
32948 34693
32949 32950
32949 34693
32949 34693
32949 32950
32951 32952
32951 34279
32951 32952
32951 34279
32952 33807
32952 33807
32953 32954
32953 32955
32953 34801
32953 32954
32953 32955
32953 34801
32954 32958
32954 34801
32954 34803
32954 34801
32954 32958
32954 34803
32955 32956
32955 32956
32955 34931
32955 34957
32955 42136
32955 34931
32955 34957
32955 42136
32956 32957
32956 32957
32957 32958
32957 32958
32957 34757
32957 34823
32957 34823
32957 34757
32958 34917
32958 34917
32959 32960
32959 32963
32959 32963
32959 32960
32960 40606
32960 32961
32960 32969
32960 40606
32960 32961
32960 32969
32961 37280
32961 32962
32961 32962
32961 32968
32961 37280
32961 32968
32962 37280
32962 32963
32962 32963
32962 37280
32964 32965
32964 32965
32966 33815
32966 32967
32966 32972
32966 33815
32966 32967
32966 32972
32967 32968
32967 32968
32967 33805
32967 33814
32967 33805
32967 33814
32968 32969
32968 32969
32968 33809
32968 33809
32969 40606
32969 32970
32969 32970
32969 40606
32970 32971
32970 32971
32971 33810
32971 32972
32971 32972
32971 33810
32972 33815
32972 33815
32973 32974
32973 32989
32973 32990
32973 32974
32973 32989
32973 32990
32974 32975
32974 32975
32974 39579
32974 39579
32975 32994
32975 32994
32976 39532
32976 39532
32977 32978
32977 32983
32977 33085
32977 33089
32977 32978
32977 32983
32977 33089
32977 33085
32978 32979
32978 33088
32978 32979
32978 33088
32979 32980
32979 33087
32979 32980
32979 33087
32980 32981
32980 33022
32980 32981
32980 33022
32981 32982
32981 33008
32981 32982
32981 33008
32982 32983
32982 32983
32982 33067
32982 33067
32983 32984
32983 32984
32985 32986
32985 33139
32985 32986
32985 33139
32986 33131
32986 32987
32986 33035
32986 33131
32986 32987
32986 33035
32987 32988
32987 33037
32987 32988
32987 33037
32988 32989
32988 32989
32988 39580
32988 39580
32989 39578
32989 39578
32990 32991
32990 32991
32992 33132
32992 33132
32993 32994
32993 32994
32993 32996
32993 33019
32993 33020
32993 32996
32993 33019
32993 33020
32994 32995
32994 32995
32995 39579
32995 32996
32995 32996
32995 39579
32996 33027
32996 33027
32997 33025
32997 33025
32998 33000
32998 32999
32998 33000
32998 32999
33000 33001
33000 33001
33003 33014
33003 33004
33003 33014
33003 39536
33003 33004
33003 39536
33004 33019
33004 33005
33004 33019
33004 33005
33005 33067
33005 33006
33005 33067
33005 33006
33006 33008
33006 33007
33006 33008
33006 33007
33008 33009
33008 33009
33009 33010
33009 33010
33010 33011
33010 33012
33010 33011
33010 33012
33012 33014
33012 33013
33012 33014
33012 33013
33014 39537
33014 39537
33015 33016
33015 33021
33015 33176
33015 33016
33015 33021
33015 33176
33016 33017
33016 33175
33016 33017
33016 33175
33017 33085
33017 33018
33017 33085
33017 33018
33018 33067
33018 33019
33018 33019
33018 33067
33020 33021
33020 33026
33020 33021
33020 33026
33021 33026
33021 33026
33022 33023
33022 33045
33022 33023
33022 33045
33023 39559
33023 33024
33023 33047
33023 39559
33023 33024
33023 33047
33024 41365
33024 33025
33024 33025
33024 41365
33025 40511
33025 40511
33026 33142
33026 33142
33027 39579
33027 33028
33027 39579
33027 33028
33028 33029
33028 33029
33029 33030
33029 33030
33030 39578
33030 33031
33030 33168
33030 39578
33030 33031
33030 33168
33031 33032
33031 33032
33032 33033
33032 33033
33034 33035
33034 33035
33036 33037
33036 33168
33036 33037
33036 33168
33038 33039
33038 33040
33038 33296
33038 33039
33038 33040
33038 33296
33039 33043
33039 33054
33039 33056
33039 33043
33039 33054
33039 33056
33040 33041
33040 39654
33040 33041
33040 39654
33041 33042
33041 33626
33041 33042
33041 33626
33042 33043
33042 33043
33042 33617
33042 33626
33042 33626
33042 33617
33043 33054
33043 33054
33044 33045
33044 33045
33044 33046
33044 33051
33044 33046
33044 33051
33045 33052
33045 42530
33045 33052
33045 42530
33046 33047
33046 33047
33047 39560
33047 39560
33048 33087
33048 33052
33048 33049
33048 33052
33048 33087
33048 33049
33049 33051
33049 33050
33049 33051
33049 33050
33051 39560
33051 39560
33052 33053
33052 33053
33054 33055
33054 33055
33055 33056
33055 33056
33056 33499
33056 33297
33056 33499
33056 33297
33057 33058
33057 33059
33057 33261
33057 33295
33057 33058
33057 33059
33057 33261
33057 33295
33058 33065
33058 33169
33058 33260
33058 33065
33058 33169
33058 33260
33059 33060
33059 33126
33059 33060
33059 33126
33060 33096
33060 33061
33060 33096
33060 33061
33061 33062
33061 33062
33062 33175
33062 33063
33062 33175
33062 33063
33063 33064
33063 33173
33063 33064
33063 33173
33064 33065
33064 33065
33064 33171
33064 33171
33065 33066
33065 33066
33068 33069
33068 41358
33068 41360
33068 43508
33068 33069
33068 41358
33068 41360
33068 43508
33069 41350
33069 41352
33069 41350
33069 41352
33070 33071
33070 33077
33070 33083
33070 39572
33070 33071
33070 33077
33070 33083
33070 39572
33071 33072
33071 39551
33071 33072
33071 39551
33072 33073
33072 39550
33072 33073
33072 39550
33073 33074
33073 41357
33073 33074
33073 41357
33074 41358
33074 33075
33074 41358
33074 43510
33074 33075
33074 43510
33075 33076
33075 33076
33076 33077
33076 33077
33076 33078
33076 33079
33076 33078
33076 33079
33077 33081
33077 33081
33077 33084
33077 33084
33079 33081
33079 33080
33079 33081
33079 33080
33081 33084
33081 33084
33082 33083
33082 39555
33082 33083
33082 39555
33083 39561
33083 39573
33083 39561
33083 39573
33084 33090
33084 33090
33085 33086
33085 33086
33086 33087
33086 33087
33086 41366
33086 41366
33091 33092
33091 33093
33091 33309
33091 33318
33091 33092
33091 33093
33091 33309
33091 33318
33092 33094
33092 33098
33092 33315
33092 33094
33092 33315
33092 33098
33093 33094
33093 33308
33093 33094
33093 33308
33094 33100
33094 33308
33094 33308
33094 33100
33095 33096
33095 33125
33095 33096
33095 33125
33096 39560
33096 39560
33097 33098
33097 33124
33097 33124
33097 33098
33098 33099
33098 33099
33098 33100
33098 33100
33099 33100
33099 33100
33100 33101
33100 33101
33101 33308
33101 33102
33101 33308
33101 33102
33102 33309
33102 33103
33102 33309
33102 33103
33103 33104
33103 33109
33103 33104
33103 33109
33104 33105
33104 33108
33104 33105
33104 33108
33105 33106
33105 33107
33105 33106
33105 33107
33107 33108
33107 33108
33109 33110
33109 33110
33109 33335
33109 41574
33109 33335
33109 41574
33113 41671
33113 41671
33114 33441
33114 33115
33114 33300
33114 33441
33114 33115
33114 33300
33115 33612
33115 33116
33115 33116
33115 33317
33115 33612
33115 33317
33116 33428
33116 33428
33117 33118
33117 33119
33117 33274
33117 33301
33117 33118
33117 33119
33117 33274
33117 33301
33118 33261
33118 33126
33118 33126
33118 33261
33119 33120
33119 33300
33119 33120
33119 33300
33120 33121
33120 33121
33122 33124
33122 35195
33122 33123
33122 33124
33122 35195
33122 33123
33124 33314
33124 33314
33125 33126
33125 33126
33133 33134
33133 33229
33133 33134
33133 33229
33134 33135
33134 33135
33134 33198
33134 33198
33136 33137
33136 33196
33136 33137
33136 33196
33137 33138
33137 33138
33138 33197
33138 33199
33138 33197
33138 33199
33139 33140
33139 33140
33140 33141
33140 33141
33141 33198
33141 33198
33168 39580
33168 39580
33169 33170
33169 33171
33169 33185
33169 33171
33169 33170
33169 33185
33170 33178
33170 39584
33170 33178
33170 39584
33171 33172
33171 33172
33173 33174
33173 33180
33173 33174
33173 33180
33174 33175
33174 33175
33174 33179
33174 33179
33176 33177
33176 39587
33176 33177
33176 39587
33177 33178
33177 33178
33177 39586
33177 39586
33178 39585
33178 39585
33181 33190
33181 33190
33182 33183
33182 33184
33182 33248
33182 33183
33182 33184
33182 33248
33183 33195
33183 33209
33183 33210
33183 33195
33183 33209
33183 33210
33184 33185
33184 33185
33184 33252
33184 33252
33185 33186
33185 33251
33185 33186
33185 33251
33186 33187
33186 39583
33186 33187
33186 39583
33187 33189
33187 33188
33187 33189
33187 33188
33189 39582
33189 39582
1606053 1606054
1606053 1606055
1606053 1606326
1606053 1606054
1606053 1606055
1606053 1606326
1606055 1606487
1606055 1609739
1606055 1606487
1606055 1609739
1606054 1606055
1606054 1606459
1606054 1606055
1606054 1606459
33190 33191
33190 33192
33190 33238
33190 33191
33190 33192
33190 33238
33192 33193
33192 33194
33192 33193
33192 33194
33194 33195
33194 33195
33196 33197
33196 33197
33197 33200
33197 33200
33198 33228
33198 33228
33199 33203
33199 33203
33200 33201
33200 33201
33201 33203
33201 33202
33201 33203
33201 33202
33202 33203
33202 33203
33207 33208
33207 33208
33208 33209
33208 33209
33209 33286
33209 33286
33210 33211
33210 33211
33210 33235
33210 33235
33211 33212
33211 33212
33212 33213
33212 33232
33212 33234
33212 33213
33212 33232
33212 33234
33213 33214
33213 33231
33213 33214
33213 33231
33214 33232
33214 33234
33214 33215
33214 33232
33214 33234
33214 33215
33215 33216
33215 33216
33217 33218
33217 33218
33219 33220
33219 39617
33219 33220
33219 39617
33220 33221
33220 33221
33220 33244
33220 33244
33221 33243
33221 33243
33222 33223
33222 33224
33222 33224
33222 33223
33224 33230
33224 33230
33225 33226
33225 33226
33225 33276
33225 33276
33226 33416
33226 33416
33227 33228
33227 33228
33229 33230
33229 33230
33231 33232
33231 33232
33232 33233
33232 33233
33233 33234
33233 33234
33235 33236
33235 33236
33236 33237
33236 33237
33237 33238
33237 33238
33241 33243
33241 33242
33241 33243
33241 33415
33241 33242
33241 33415
33242 33402
33242 33247
33242 33402
33242 33247
33243 33413
33243 33413
33244 39617
33244 33245
33244 39617
33244 33245
33245 33246
33245 39618
33245 33246
33245 39618
33246 39620
33246 33247
33246 33247
33246 39620
33247 33403
33247 33403
33248 33249
33248 33259
33248 33249
33248 33259
33249 33251
33249 33250
33249 33251
33249 33250
33251 33252
33251 33252
33253 33254
33253 33255
33253 42805
33253 33254
33253 33255
33253 42805
33254 33257
33254 42806
33254 33257
33254 42806
33255 42803
33255 33256
33255 42803
33255 33256
33256 33257
33256 33257
33256 43426
33256 43426
33257 43425
33257 43425
33258 33260
33258 33259
33258 33259
33258 33260
33258 33285
33258 39628
33258 33285
33258 39628
33259 33286
33259 33286
33260 39626
33260 39626
33261 33275
33261 33275
33262 33263
33262 33264
33262 33263
33262 33264
33263 33273
33263 33312
33263 33273
33263 33312
33264 33266
33264 33265
33264 33266
33264 33265
33266 33267
33266 33267
33267 33268
33267 33304
33267 33268
33267 33304
33268 33269
33268 33269
33268 33303
33268 33303
33269 33270
33269 33270
33270 33271
33270 41571
33270 33271
33270 41571
33271 33273
33271 33272
33271 33273
33271 41568
33271 33272
33271 41568
33273 33313
33273 33313
33274 33275
33274 33294
33274 33302
33274 33275
33274 33294
33274 33302
33275 33294
33275 33294
33276 33277
33276 33416
33276 33416
33276 33277
33277 33278
33277 33427
33277 33278
33277 33427
33278 33279
33278 33493
33278 33279
33278 33493
33279 33280
33279 33492
33279 33280
33279 33492
33280 33281
33280 33497
33280 33281
33280 33497
33281 33282
33281 33391
33281 33517
33281 33282
33281 33391
33281 33517
33282 33283
33282 33393
33282 33283
33282 33393
33283 33284
33283 33284
33284 33285
33284 33393
33284 33285
33284 33393
33285 40503
33285 40503
33286 33287
33286 33287
33289 33290
33289 33291
33289 33397
33289 33430
33289 33290
33289 33291
33289 33397
33289 33430
33290 33295
33290 33393
33290 33295
33290 33393
33290 33395
33290 33395
33291 33294
33291 33292
33291 33294
33291 33292
33292 33293
33292 33293
33294 33430
33294 33430
33295 40498
33295 40498
33296 33299
33296 39533
33296 33299
33296 39533
33297 33298
33297 33529
33297 33298
33297 33529
33298 33299
33298 33299
33298 39538
33298 39538
33299 39533
33299 39533
33300 33301
33300 33440
33300 33301
33300 33440
33301 33302
33301 33438
33301 33302
33301 33438
33302 33430
33302 33433
33302 33430
33302 33433
33303 33304
33303 33304
33305 33307
33305 33317
33305 33337
33305 33337
33305 33317
33305 33307
33306 33307
33306 33334
33306 33307
33306 33334
33307 33318
33307 33318
33308 33309
33308 33309
33309 33335
33309 33335
33310 33312
33310 33311
33310 33312
33310 41566
33310 33311
33310 41566
33311 33313
33311 33313
33311 41567
33311 41567
33312 33313
33312 41565
33312 33313
33312 41565
33314 41069
33314 35195
33314 33315
33314 33315
33314 35195
33314 41069
33315 41068
33315 41068
33316 33334
33316 33334
33317 33318
33317 33318
33317 33336
33317 33336
33318 43451
33318 43451
33323 33324
33323 42035
33323 43203
33323 33324
33323 42035
33323 43203
33324 42128
33324 43202
33324 42128
33324 43202
33325 43188
33325 43188
33326 42037
33326 42036
33326 33327
33326 42036
33326 42037
33326 33327
33327 33770
33327 33775
33327 33775
33327 33770
33328 33366
33328 33329
33328 33330
33328 33329
33328 33330
33328 33366
33330 33367
33330 33367
33332 33333
33332 33333
33332 33444
33332 33444
33333 33442
33333 33443
33333 33443
33333 33442
33334 33335
33334 33335
33336 33337
33336 33337
33336 33341
33336 33342
33336 33341
33336 33342
33337 40691
33337 40691
33338 40852
33338 33339
33338 33340
33338 40852
33338 42258
33338 33339
33338 33340
33338 42258
33339 43225
33339 33342
33339 33342
33339 43225
33340 33341
33340 33341
33340 42258
33340 42258
33341 33368
33341 40692
33341 40692
33341 33368
33342 43452
33342 43452
33349 33350
33349 33457
33349 33457
33349 33350
33350 33351
33350 33535
33350 33351
33350 33535
33351 40851
33351 40851
33352 33353
33352 33354
33352 33362
33352 33353
33352 33354
33352 33362
33353 33356
33353 33363
33353 33356
33353 33363
33354 33355
33354 33362
33354 33362
33354 33355
33355 33367
33355 33356
33355 33356
33355 33367
33356 33368
33356 33368
33357 33358
33357 33359
33357 43215
33357 43216
33357 33358
33357 33359
33357 43215
33357 43216
33358 43183
33358 33360
33358 43183
33358 33360
33359 33360
33359 42127
33359 33360
33359 42127
33360 42129
33360 42129
33361 33369
33361 33362
33361 33363
33361 33362
33361 33363
33361 33369
33361 33370
33361 33370
33362 33365
33362 33365
33363 33369
33363 33369
33364 33366
33364 33365
33364 33365
33364 33366
33364 33471
33364 33472
33364 33471
33364 33472
33365 33370
33365 33370
33366 33367
33366 33367
33367 33368
33367 40692
33367 40692
33367 33368
33368 42258
33368 42258
33369 33370
33369 33370
33371 33372
33371 33373
33371 33836
33371 33372
33371 33373
33371 33836
33372 33374
33372 33621
33372 33836
33372 33836
33372 33374
33372 33621
33373 33816
33373 33374
33373 33816
33373 33840
33373 33374
33373 33840
33374 33622
33374 33819
33374 33622
33374 33819
33375 33376
33375 33376
33375 33776
33375 42041
33375 33776
33375 42041
33376 33777
33376 33777
1606241 1608639
1606241 1606310
1606241 1608639
1606241 1606310
1606242 1606243
1606242 1606244
1606242 1607107
1606242 1607108
1606242 1610562
1606242 1606243
1606242 1606244
1606242 1607107
1606242 1607108
1606242 1610562
33377 33378
33377 38432
33377 33378
33377 38432
33380 33381
33380 33385
33380 33381
33380 33385
33381 33382
33381 33383
33381 33382
33381 33383
33383 33384
33383 33384
1606248 1606249
1606248 1606250
1606248 1606249
1606248 1606250
1606248 1607211
1606248 1607881
1606248 1607211
1606248 1607881
1606249 1607296
1606249 1607296
1606250 1606259
1606250 1606259
33387 33388
33387 33389
33387 33802
33387 33803
33387 33388
33387 33389
33387 33802
33387 33803
33388 33390
33388 33803
33388 33803
33388 33390
33389 33390
33389 33828
33389 33390
33389 33828
33390 33471
33390 33471
1606254 1607211
1606254 1606259
1606254 1606259
1606254 1607211
1606254 1607879
1606254 1607879
1606253 1606254
1606253 1606255
1606253 1606254
1606253 1606255
1606258 1606259
1606258 1606259
33397 33431
33397 33431
33396 33397
33396 33397
33396 33434
33396 33434
1606255 1606256
1606255 1606256
33394 33395
33394 33395
33394 33396
33394 33516
33394 33396
33394 33516
33395 33527
33395 33527
33404 33405
33404 33406
33404 33496
33404 33405
33404 33406
33404 33496
33405 33495
33405 33410
33405 33495
33405 33410
33406 33407
33406 33407
33406 33411
33406 33424
33406 33411
33406 33424
33407 33412
33407 33412
33409 33410
33409 33410
33411 33412
33411 33426
33411 39653
33411 33412
33411 33426
33411 39653
33412 33417
33412 33417
33412 39653
33412 39653
33413 33415
33413 33415
33414 33416
33414 33415
33414 33427
33414 33415
33414 33416
33414 33427
33417 33608
33417 33608
33418 33610
33418 33422
33418 33419
33418 33419
33418 33422
33418 33610
33419 33420
33419 33420
33420 33421
33420 33421
33421 36861
33421 33422
33421 33422
33421 36861
33422 36862
33422 36862
33423 33496
33423 33424
33423 33424
33423 33425
33423 33496
33423 34790
33423 33425
33423 34790
33424 33496
33424 33426
33424 33496
33424 33426
33425 33426
33425 33426
33425 34721
33425 34732
33425 34721
33425 34732
33426 42714
33426 42714
33427 33493
33427 33493
33428 33429
33428 33429
33428 43451
33428 43451
33429 41068
33429 43451
33429 41068
33429 43451
33430 33431
33430 33431
33431 33432
33431 33435
33431 33432
33431 33435
33432 33433
33432 33433
33432 33436
33432 33446
33432 33436
33432 33446
1606296 1608640
1606296 1608640
33433 33438
33433 33438
33434 33435
33434 33449
33434 33435
33434 33449
33435 33446
33435 33446
33436 33442
33436 33437
33436 33442
33436 33448
33436 33437
33436 33448
33437 33438
33437 33438
33437 33439
33437 33439
33440 33441
33440 33441
33441 33443
33441 33443
33439 33443
33439 33440
33439 33442
33439 33440
33439 33442
33439 33443
33444 33453
33444 33445
33444 33453
33444 33445
33445 33448
33445 33448
33445 33452
33445 33452
33442 33445
33442 33445
33446 33447
33446 33447
33447 33448
33447 33448
33447 33450
33447 33450
33448 33451
33448 33451
33449 33450
33449 33515
33449 33450
33449 33515
33451 33452
33451 33452
33451 33454
33451 33530
33451 33454
33451 33530
33452 33453
33452 33453
33452 33455
33452 33455
33453 33456
33453 33456
33450 33451
33450 33451
33455 33456
33455 33458
33455 33456
33455 33458
33456 33457
33456 33457
33456 33459
33456 33459
33454 33455
33454 33533
33454 33538
33454 33455
33454 33538
33454 33533
33458 33538
33458 33459
33458 33536
33458 33538
33458 33459
33458 33536
33460 33461
33460 33462
33460 33463
33460 33461
33460 33462
33460 33463
33459 33537
33459 33537
33461 33489
33461 33491
33461 33489
33461 33491
33463 41673
33463 41663
33463 33464
33463 41663
33463 41673
33463 33464
33464 33465
33464 34950
33464 33465
33464 34950
33465 33466
33465 33736
33465 33466
33465 33736
33466 33467
33466 33467
33467 33468
33467 33468
33467 39690
33467 39690
33468 33469
33468 39690
33468 39690
33468 33469
33469 40853
33469 33470
33469 40853
33469 33470
33470 33471
33470 33471
33470 33778
33470 42042
33470 33778
33470 42042
33471 33777
33471 33777
33472 33473
33472 33764
33472 33473
33472 33764
33473 33474
33473 33475
33473 33474
33473 33475
33475 33476
33475 41698
33475 33476
33475 41698
33476 33477
33476 43233
33476 33477
33476 43233
33477 33478
33477 33479
33477 33478
33477 33479
33479 33480
33479 33483
33479 33480
33479 33483
33480 33481
33480 33482
33480 33481
33480 33482
33483 33484
33483 33485
33483 33484
33483 33485
33485 33486
33485 43232
33485 33486
33485 43232
33486 33487
33486 33488
33486 33487
33486 33488
33488 33489
33488 33489
33488 43230
33488 43230
33489 33490
33489 33490
33492 33493
33492 33493
33492 33497
33492 33497
33494 33495
33494 33495
33494 33496
33494 34788
33494 33496
33494 34788
33498 33531
33498 33499
33498 33515
33498 33499
33498 33500
33498 33515
33498 33531
33498 33500
33499 33512
33499 33512
33500 33516
33500 33501
33500 33516
33500 33501
33501 33502
33501 33503
33501 33502
33501 33503
33503 33504
33503 33505
33503 33504
33503 33505
33505 33506
33505 33507
33505 33506
33505 33507
33507 33508
33507 33509
33507 33508
33507 33509
33509 33510
33509 33511
33509 33510
33509 33511
33511 33512
33511 33512
33512 33526
33512 33526
1606371 1606372
1606371 1607189
1606371 1606372
1606371 1607189
33515 33530
33515 33532
33515 33530
33515 33532
33516 43512
33516 43512
33517 33518
33517 39656
33517 33518
33517 39656
33518 33519
33518 33519
33519 33529
33519 33520
33519 33520
33519 33529
33520 33521
33520 33521
33521 33522
33521 33524
33521 33522
33521 33524
33522 33523
33522 33524
33522 33524
33522 33523
33524 33525
33524 33525
33526 33527
33526 33527
33526 43512
33526 43512
33527 33528
33527 33528
33529 43224
33529 43224
33530 33533
33530 33533
33531 33532
33531 33564
33531 33532
33531 33564
33532 33533
33532 33533
33532 33563
33532 33563
33533 33540
33533 33540
33534 41582
33534 41582
33535 33695
33535 33695
33536 33537
33536 33539
33536 33549
33536 33537
33536 33539
33536 33549
33537 33554
33537 33554
33538 33539
33538 33540
33538 33540
33538 33539
33539 33550
33539 33550
33540 33563
33540 33563
33541 33542
33541 33545
33541 33598
33541 33542
33541 33545
33541 33598
33542 33543
33542 33596
33542 33543
33542 33596
33543 33544
33543 33606
33543 33544
33543 33606
33544 33545
33544 33545
33545 33562
33545 33562
33546 33547
33546 33553
33546 33607
33546 33547
33546 33553
33546 33607
33547 33548
33547 33741
33547 39664
33547 33548
33547 33741
33547 39664
33548 33549
33548 33549
33548 33555
33548 33555
33549 33554
33549 33554
33550 33551
33550 39630
33550 33551
33550 39630
33551 33606
33551 33553
33551 33552
33551 33553
33551 33606
33551 33552
33553 33607
33553 33607
33554 33555
33554 33555
33555 39663
33555 39663
33556 33557
33556 33576
33556 33557
33556 33576
33557 33558
33557 33575
33557 33592
33557 33558
33557 33575
33557 33592
33558 33559
33558 33599
33558 33600
33558 33559
33558 33599
33558 33600
33559 33560
33559 33599
33559 33599
33559 33560
33560 33561
33560 33561
33561 33562
33561 33562
33562 33563
33562 33563
33564 33565
33564 33566
33564 33565
33564 33566
33566 33567
33566 33567
33567 33568
33567 33568
33568 33569
33568 33569
33571 33572
33571 33591
33571 33633
33571 33645
33571 33572
33571 33591
33571 33633
33571 33645
33572 33573
33572 33632
33572 33573
33572 33632
33573 33574
33573 33631
33573 33574
33573 33631
33574 33575
33574 33575
33574 39650
33574 39650
33575 39638
33575 39651
33575 39651
33575 39638
33576 33578
33576 33577
33576 33578
33576 33577
33578 33579
33578 33589
33578 33579
33578 33589
33579 33580
33579 33581
33579 33580
33579 33581
33581 33582
33581 33587
33581 33582
33581 33587
33582 33583
33582 33586
33582 33583
33582 33586
33583 33584
33583 33585
33583 33584
33583 33585
33587 33589
33587 33588
33587 33589
33587 33588
33589 33590
33589 33590
33590 33591
33590 33591
33590 33634
33590 33634
33591 33634
33591 33634
33592 33593
33592 33600
33592 39642
33592 33600
33592 33593
33592 39642
33593 33594
33593 33601
33593 39635
33593 33594
33593 33601
33593 39635
33594 33596
33594 33595
33594 33596
33594 33595
33596 33597
33596 33597
33599 33600
33599 33600
33601 33742
33601 33602
33601 33605
33601 33742
33601 33602
33601 33605
33602 33603
33602 33743
33602 33745
33602 33603
33602 33743
33602 33745
33603 33604
33603 33746
33603 33604
33603 33746
33604 33607
33604 33741
33604 33605
33604 33605
33604 33607
33604 33741
33605 33606
33605 33606
33608 33609
33608 33611
33608 33609
33608 33611
33609 33610
33609 33610
33609 33611
33609 33611
33612 43452
33612 43452
33613 33614
33613 33615
33613 33623
33613 41091
33613 33614
33613 33615
33613 33623
33613 41091
33614 34721
33614 33620
33614 34721
33614 33620
33615 33616
33615 33616
33615 33625
33615 33625
33616 36864
33616 36864
33617 33618
33617 33628
33617 33618
33617 33628
33618 33620
33618 33619
33618 33620
33618 33619
33620 33627
33620 33627
33621 33622
33621 33821
33621 33622
33621 33821
33622 33822
33622 33823
33622 33823
33622 33822
33623 33646
33623 33624
33623 33646
33623 33624
33624 33633
33624 33625
33624 33625
33624 33633
33625 39634
33625 39634
33626 34732
33626 42714
33626 34732
33626 42714
33627 34721
33627 33628
33627 33628
33627 34721
33628 34731
33628 34731
33629 33632
33629 33630
33629 33632
33629 33656
33629 33630
33629 33656
33630 33631
33630 33631
33630 33672
33630 33672
33632 33657
33632 33657
33633 33637
33633 33637
33634 33635
33634 33635
33635 33636
33635 33636
33636 33637
33636 36864
33636 36864
33636 33637
33637 39634
33637 39634
33638 33639
33638 33650
33638 33639
33638 33650
33639 33640
33639 34804
33639 39999
33639 33640
33639 34804
33639 39999
33640 33641
33640 39999
33640 39999
33640 33641
33641 33642
33641 33678
33641 33642
33641 33678
33642 33643
33642 33663
33642 33643
33642 33663
33643 33644
33643 33662
33643 33644
33643 33662
33644 33645
33644 33645
33644 33662
33644 33662
33645 33664
33645 33664
33646 33647
33646 33650
33646 33650
33646 33647
33647 33648
33647 33649
33647 33648
33647 33649
33650 34805
33650 34805
33651 33663
33651 33652
33651 33663
33651 33676
33651 33652
33651 33676
33652 33653
33652 39903
33652 33653
33652 39903
33653 33654
33653 39898
33653 33654
33653 39898
33654 33655
33654 39902
33654 33655
33654 39902
33655 33656
33655 33656
33655 33666
33655 33666
33656 33657
33656 33657
33657 33658
33657 33658
33658 33659
33658 33665
33658 33659
33658 33665
33659 33660
33659 33665
33659 33665
33659 33660
33660 33664
33660 33661
33660 33664
33660 33661
33661 33662
33661 33662
33663 33677
33663 33677
33664 33665
33664 33665
33666 33667
33666 39901
33666 33667
33666 39901
33667 33668
33667 33669
33667 33691
33667 33668
33667 33669
33667 33691
33669 33670
33669 33681
33669 33690
33669 33670
33669 33681
33669 33690
33670 33671
33670 33686
33670 39652
33670 33671
33670 33686
33670 39652
33671 39650
33671 33672
33671 33672
33671 39650
33672 33673
33672 33673
33674 33675
33674 33679
33674 34815
33674 33675
33674 33679
33674 34815
33675 33676
33675 33676
33675 34814
33675 34814
33677 33678
33677 33678
33678 33679
33678 33679
33679 34816
33679 34816
33680 40997
33680 40997
33681 33682
33681 33689
33681 33682
33681 33689
33682 33683
33682 33684
33682 33683
33682 33684
33684 33685
33684 33688
33684 33685
33684 33688
33685 33686
33685 33686
33685 41693
33685 41693
33686 39651
33686 39651
33687 33688
33687 33688
33687 33692
33687 34857
33687 33692
33687 34857
33688 34856
33688 41694
33688 34856
33688 41694
33691 33692
33691 34859
33691 33692
33691 34859
33692 33693
33692 34858
33692 33693
33692 34858
33694 33695
33694 33700
33694 33695
33694 33700
33695 33702
33695 33702
33700 33701
33700 33709
33700 33701
33700 33709
33701 33702
33701 33702
33701 39658
33701 39658
33702 40851
33702 40851
33703 33707
33703 33707
33707 33708
33707 33723
33707 33708
33707 33723
33708 33709
33708 33709
33708 33725
33708 33725
33709 33724
33709 33724
33712 33713
33712 43189
33712 33713
33712 43189
33715 33716
33715 40824
33715 33716
33715 40824
33716 33718
33716 33718
33717 33718
33717 36838
33717 33718
33717 36838
33718 36838
33718 36838
33719 42914
33719 33720
33719 42914
33719 33720
33720 33721
33720 33721
33720 42915
33720 42915
33721 33722
33721 33722
33722 43561
33722 43561
33723 33724
33723 39699
33723 33724
33723 39699
33724 39657
33724 39657
33724 41666
33724 41666
33726 33727
33726 33727
33726 33761
33726 33761
33727 33728
33727 33728
33728 41678
33728 33729
33728 33748
33728 41678
33728 33729
33728 33748
33729 33760
33729 33760
33730 33731
33730 40967
33730 33731
33730 40967
33731 33732
33731 39665
33731 33732
33731 39665
33732 33734
33732 33733
33732 33734
33732 33733
33734 33741
33734 33743
33734 33741
33734 33743
33735 39672
33735 33736
33735 33736
33735 39672
33737 33738
33737 33739
33737 34264
33737 33738
33737 33739
33737 34264
33738 33740
33738 33851
33738 33740
33738 33851
33739 33740
33739 34269
33739 34277
33739 33740
33739 34269
33739 34277
33740 33852
33740 33852
33742 39635
33742 39635
33743 33744
33743 33744
33747 33775
33747 33775
33748 33749
33748 42281
33748 33749
33748 42281
33749 33750
33749 42281
33749 42281
33749 33750
33750 33751
33750 43234
33750 33751
33750 43234
33751 41698
33751 33752
33751 41698
33751 33752
33752 33753
33752 41690
33752 33753
33752 41690
33753 33754
33753 41691
33753 33754
33753 41691
33754 33755
33754 41700
33754 33755
33754 41700
33755 33756
33755 33764
33755 33756
33755 33764
33756 33757
33756 33757
33761 33762
33761 33762
33763 41665
33763 41665
33764 41699
33764 41699
33765 33770
33765 33828
33765 33766
33765 33770
33765 33828
33765 33766
33766 33824
33766 33826
33766 33824
33766 33826
33769 33771
33769 33820
33769 33770
33769 33770
33769 33771
33769 33820
33770 33834
33770 33834
33772 33773
33772 43197
33772 33773
33772 43197
33773 33774
33773 43196
33773 33774
33773 43196
33774 33775
33774 33775
33774 43195
33774 43195
33776 42036
33776 33777
33776 33834
33776 42036
33776 33777
33776 33834
33777 33834
33777 33834
33778 33779
33778 42042
33778 42042
33778 33779
33779 33780
33779 42043
33779 33780
33779 42043
33780 33781
33780 33854
33780 33781
33780 33854
33781 33782
33781 33855
33781 33782
33781 33855
33782 33783
33782 33784
33782 33860
33782 33783
33782 33784
33782 33860
33784 33785
33784 33799
33784 33785
33784 33799
33785 33786
33785 33796
33785 33786
33785 33796
33786 33787
33786 33795
33786 33787
33786 33795
33787 33788
33787 33794
33787 33788
33787 33794
33788 33789
33788 33791
33788 33789
33788 33791
33789 33790
33789 33790
33791 33792
33791 33793
33791 33792
33791 33793
33796 33797
33796 33798
33796 33797
33796 33798
33799 33860
33799 33800
33799 33860
33799 33800
33800 33860
33800 33801
33800 33860
33800 33801
33801 33802
33801 33821
33801 33860
33801 33802
33801 33821
33801 33860
33802 33823
33802 33826
33802 33823
33802 33826
33803 33804
33803 33804
33805 33806
33805 33825
33805 33806
33805 33825
33806 33807
33806 33824
33806 33807
33806 33817
33806 33824
33806 33817
33807 33808
33807 33808
33808 33809
33808 33809
33811 33812
33811 38223
33811 33812
33811 38223
33812 33813
33812 33813
33812 41746
33812 41746
33813 41748
33813 41748
33814 33820
33814 33815
33814 33815
33814 33820
33814 33825
33814 33825
33816 33839
33816 33839
33817 33819
33817 33818
33817 33819
33817 33818
33819 33826
33819 33826
33820 33825
33820 33825
33821 33822
33821 36158
33821 33822
33821 36158
33822 33823
33822 33823
33824 33826
33824 33826
33827 33847
33827 34692
33827 33847
33827 34692
33828 33834
33828 33834
33835 33950
33835 33950
33836 33840
33836 33840
33837 33839
33837 33838
33837 33839
33837 34708
33837 33838
33837 34708
33838 33841
33838 34712
33838 34727
33838 36157
33838 33841
33838 34712
33838 34727
33838 36157
33839 33842
33839 33842
33840 33841
33840 33841
33841 36157
33841 36157
33842 33843
33842 33848
33842 33853
33842 34696
33842 33843
33842 34696
33842 33848
33842 33853
33843 33844
33843 33845
33843 34707
33843 33844
33843 33845
33843 34707
33845 33847
33845 33846
33845 33847
33845 33846
33847 34692
33847 34692
33848 33849
33848 33853
33848 33853
33848 33849
33849 33851
33849 33850
33849 33851
33849 33850
33851 34264
33851 34264
33851 34711
33851 34711
33852 33853
33852 34703
33852 33853
33852 34703
33853 34702
33853 34702
33854 33855
33854 42045
33854 33855
33854 42045
33855 36156
33855 36156
33857 33858
33857 33858
33860 36161
33860 36162
33860 36162
33860 36161
33862 33863
33862 33872
33862 33933
33862 33863
33862 33872
33862 33933
33863 33864
33863 33865
33863 33954
33863 33864
33863 33865
33863 33954
33865 33866
33865 33946
33865 33967
33865 33866
33865 33946
33865 33967
33866 33867
33866 33947
33866 33867
33866 33947
33867 33868
33867 33868
33867 33949
33867 33949
33868 34061
33868 34061
33869 33870
33869 39767
33869 33870
33869 39767
33870 33871
33870 33871
33871 33872
33871 33872
33871 33911
33871 33940
33871 33911
33871 33940
33872 33910
33872 33910
33873 33874
33873 37333
33873 33874
33873 37333
33874 37332
33874 37332
33875 33876
33875 33879
33875 33927
33875 33876
33875 33879
33875 33927
33876 33877
33876 33935
33876 36889
33876 33877
33876 33935
33876 36889
33877 33878
33877 33934
33877 33878
33877 33934
33878 33879
33878 33879
33879 33928
33879 33928
33880 33881
33880 33881
33881 33913
33881 33913
33882 33883
33882 33883
33884 33885
33884 33885
33887 33888
33887 33895
33887 33907
33887 33888
33887 33895
33887 33907
33888 33889
33888 33890
33888 33889
33888 33890
33890 33891
33890 33906
33890 33891
33890 33906
33891 33892
33891 39759
33891 33892
33891 39759
33892 33893
33892 33929
33892 33893
33892 33929
33893 33894
33893 33894
33894 33895
33894 33895
33894 39758
33894 39758
33895 37231
33895 37231
33896 33906
33896 33897
33896 33898
33896 33906
33896 33897
33896 33898
33897 33905
33897 33925
33897 33905
33897 33925
33898 33899
33898 33900
33898 33899
33898 33900
33900 33901
33900 33902
33900 33908
33900 33901
33900 33902
33900 33908
33902 33904
33902 37229
33902 33903
33902 33904
33902 37229
33902 33903
33904 33905
33904 33905
33905 41086
33905 41086
33906 33929
33906 33930
33906 33929
33906 33930
33907 33908
33907 37230
33907 33908
33907 37230
33908 33909
33908 33909
33910 33911
33910 33911
33910 33924
33910 33934
33910 33934
33910 33924
33911 33921
33911 33921
33912 33913
33912 33914
33912 33914
33912 33913
33913 33915
33913 33915
33914 33961
33914 33961
33921 33922
33921 33922
33922 33923
33922 33945
33922 33923
33922 33945
33923 33929
33923 33924
33923 33924
33923 33929
33924 33928
33924 33928
33925 33926
33925 33959
33925 33926
33925 33959
33926 33927
33926 33927
33926 33958
33926 33958
33927 36888
33927 36888
33928 36887
33928 36887
33931 33935
33931 33932
33931 33935
33931 33963
33931 33932
33931 33963
33932 33933
33932 33954
33932 33933
33932 33954
33933 33953
33933 33953
33934 36887
33934 36887
33935 33973
33935 33973
33936 33995
33936 33937
33936 33994
33936 33995
33936 33937
33936 33994
33937 33938
33937 34068
33937 33938
33937 34068
33938 33939
33938 33939
33939 39766
33939 39766
33940 33941
33940 33945
33940 33945
33940 33941
33941 33942
33941 33942
33942 33943
33942 33944
33942 33943
33942 33944
33944 33945
33944 33945
33946 33947
33946 33948
33946 33947
33946 33948
33948 33949
33948 33949
33948 34060
33948 34060
33950 34748
33950 40673
33950 40673
33950 34748
33953 33954
33953 33954
33955 33959
33955 33956
33955 33959
33955 41084
33955 33956
33955 41084
33956 33957
33956 33972
33956 34128
33956 41083
33956 33957
33956 33972
33956 34128
33956 41083
33957 36889
33957 33958
33957 33973
33957 33958
33957 33973
33957 36889
33959 41085
33959 41085
33960 33962
33960 33961
33960 33961
33960 33962
33960 34125
33960 34125
33961 34126
33961 34126
33962 34001
33962 34001
33963 33964
33963 33972
33963 33972
33963 33964
33964 33965
33964 33976
33964 33965
33964 33976
33965 33966
33965 33990
33965 33996
33965 33966
33965 33996
33965 33990
33966 33967
33966 33967
33966 41090
33966 41090
33967 41088
33967 41088
1606825 1606826
1606825 1606872
1606825 1606873
1606825 1606873
1606825 1606826
1606825 1606872
1606826 1606875
1606826 1606875
33972 33974
33972 34128
33972 34128
33972 33974
33974 33975
33974 34146
33974 34148
33974 33975
33974 34146
33974 34148
33975 33976
33975 33976
33975 33981
33975 33981
33976 33980
33976 33980
33977 33978
33977 33985
33977 34144
33977 34164
33977 33978
33977 33985
33977 34144
33977 34164
33978 33979
33978 33986
33978 33979
33978 33986
33979 33980
33979 33980
33979 33989
33979 33989
33980 39779
33980 39779
33981 33982
33981 33983
33981 33982
33981 33983
33983 34146
33983 33984
33983 34146
33983 33984
33984 33985
33984 33985
33985 34146
33985 34145
33985 34146
33985 34145
33986 33987
33986 33997
33986 33987
33986 33997
33987 33988
33987 33998
33987 34091
33987 33988
33987 33998
33987 34091
33988 33990
33988 33989
33988 33989
33988 33990
33990 33991
33990 39779
33990 39779
33990 33991
33991 34091
33991 33992
33991 34091
33991 33992
33992 33993
33992 34062
33992 34090
33992 33993
33992 34062
33992 34090
33993 33994
33993 33994
33994 34062
33994 34063
33994 34062
33994 34063
33995 33996
33995 33996
33996 41090
33996 41090
33997 33998
33997 34149
33997 34157
33997 33998
33997 34157
33997 34149
33998 34160
33998 34160
33999 34017
33999 34018
33999 34017
33999 34018
34000 34069
34000 34069
34001 34002
34001 34002
34001 34123
34001 34123
34003 34004
34003 34005
34003 41288
34003 34004
34003 34005
34003 41288
34004 34005
34004 39763
34004 34005
34004 39763
34005 39770
34005 39770
34006 34007
34006 34013
34006 36901
34006 34007
34006 34013
34006 36901
34007 34015
34007 34015
34009 36901
34009 34010
34009 34014
34009 36900
34009 36901
34009 34010
34009 34014
34009 36900
34010 34011
34010 36907
34010 34011
34010 36907
34011 34012
34011 34012
34012 34013
34012 34013
34013 34014
34013 34015
34013 34015
34013 34014
1606871 1606872
1606871 1606872
34017 34020
34017 34028
34017 34020
34017 34028
34018 34019
34018 34019
34019 34020
34019 39767
34019 34020
34019 39767
34021 34022
34021 34022
34022 34500
34022 34500
34023 34024
34023 34024
34024 34025
34024 34059
34024 34025
34024 34059
34025 34026
34025 36910
34025 34026
34025 36910
34026 34027
34026 34027
34026 36906
34026 36906
34027 36900
34027 36900
34028 34029
34028 36913
34028 34029
34028 36913
34029 34030
34029 34030
34029 36916
34029 36916
34030 39847
34030 39847
34032 34033
34032 34034
34032 34033
34032 34034
34034 39847
34034 34035
34034 39847
34034 34035
34035 34036
34035 34036
34035 36914
34035 36914
34037 34038
34037 34038
34038 34039
34038 34097
34038 34039
34038 34097
34039 34040
34039 34100
34039 34040
34039 34100
34040 34041
34040 39772
34040 34041
34040 39772
34041 34042
34041 36895
34041 34042
34041 36895
34042 34044
34042 34043
34042 34044
34042 36894
34042 34043
34042 36894
34044 34045
34044 34045
1606906 1606908
1606906 1606907
1606906 1606907
1606906 1606908
1606906 1606909
1606906 1610472
1606906 1606909
1606906 1610472
1606909 1606910
1606909 1610472
1606909 1610472
1606909 1606910
34047 34584
34047 34054
34047 34584
34047 35923
34047 34054
34047 35923
1606908 1606911
1606908 1606911
34050 36918
34050 36918
34051 34052
34051 34052
34051 34531
34051 34531
34052 34053
34052 34053
1606910 1606911
1606910 1606911
1606910 1606917
1606910 1610558
1606910 1606917
1606910 1610558
34053 34054
34053 34054
34053 36920
34053 36920
34048 34050
34048 34049
34048 34050
34048 34553
34048 34049
34048 34553
34054 36919
34054 36919
1606917 1607124
1606917 1610557
1606917 1607124
1606917 1610557
34060 34061
34060 34061
34060 39770
34060 39770
34062 34074
34062 34074
34063 34073
34063 34064
34063 34073
34063 34064
34064 34065
34064 34065
34064 34076
34064 34076
34065 34066
34065 34066
34066 34067
34066 34075
34066 34067
34066 34075
34067 34068
34067 34068
34067 39761
34067 39761
34068 39765
34068 39765
34069 34075
34069 34075
34070 34074
34070 34071
34070 34074
34070 39780
34070 34071
34070 39780
34071 34072
34071 34072
34071 34080
34071 34093
34071 34080
34071 34093
34072 34079
34072 34079
34073 34076
34073 34076
34074 34090
34074 34090
34075 39762
34075 39762
34077 34078
34077 34080
34077 34078
34077 34080
34077 34107
34077 34107
34078 34195
34078 34195
34080 34196
34080 34196
34081 34082
34081 34089
34081 34175
34081 34216
34081 34082
34081 34089
34081 34216
34081 34175
34082 34222
34082 34211
34082 34083
34082 34211
34082 34222
34082 34083
34083 34084
34083 34084
34084 34085
34084 34104
34084 34085
34084 34104
34085 34086
34085 34087
34085 34086
34085 34087
34087 34107
34087 34088
34087 34107
34087 34088
34088 34160
34088 34089
34088 34089
34088 34160
34088 34239
34088 34239
34089 34241
34089 34241
34090 34091
34090 34091
34091 34169
34091 34169
34092 34093
34092 34196
34092 34093
34092 34096
34092 34196
34092 34197
34092 34096
34092 34197
34093 34094
34093 34094
34094 34095
34094 34095
34095 34096
34095 34096
34095 34194
34095 34194
34096 34193
34096 34193
34097 36898
34097 34102
34097 34098
34097 34102
34097 36898
34097 34098
34098 34099
34098 36897
34098 34099
34098 36897
34099 34100
34099 34100
34099 36896
34099 36896
34101 34103
34101 34213
34101 34213
34101 34103
34103 34213
34103 34213
34104 34105
34104 34105
34105 34195
34105 34106
34105 34195
34105 34106
34106 34107
34106 34195
34106 34107
34106 34195
34108 34170
34108 34109
34108 34115
34108 34170
34108 34109
34108 34115
34109 34110
34109 34187
34109 34110
34109 34187
34110 34111
34110 34185
34110 34111
34110 34185
34111 34112
34111 34133
34111 34112
34111 34133
34112 34114
34112 34113
34112 34114
34112 34113
34114 34115
34114 34115
34115 34171
34115 34171
34116 34117
34116 34128
34116 34129
34116 34117
34116 34128
34116 34129
34117 37351
34117 37351
34118 34119
34118 34130
34118 34119
34118 34130
34119 34120
34119 34121
34119 34120
34119 34121
34121 34128
34121 34122
34121 34128
34121 34122
34122 34123
34122 34123
34122 41082
34122 41082
34123 34124
34123 34124
34126 34127
34126 34127
34129 34132
34129 37349
34129 34132
34129 37349
34130 34131
34130 34132
34130 39775
34130 34132
34130 34131
34130 39775
34132 39774
34132 39774
34133 34134
34133 34152
34133 34134
34133 34152
34134 34135
34134 34155
34134 34135
34134 34155
34135 34136
34135 39782
34135 34136
34135 39782
34136 34137
34136 34138
34136 34137
34136 34138
34138 34139
34138 34140
34138 34139
34138 34140
34140 34141
34140 34156
34140 34141
34140 34156
34141 34149
34141 34142
34141 34143
34141 34149
34141 34142
34141 34143
34143 34144
34143 34144
34143 34151
34143 34151
34144 39778
34144 39778
34146 34147
34146 34147
34149 34150
34149 34150
34150 34151
34150 34151
34150 34166
34150 34166
34152 34153
34152 34183
34152 34153
34152 34183
34153 34154
34153 34236
34153 34154
34153 34236
34154 34155
34154 34155
34156 34157
34156 34157
34156 34236
34156 34236
34157 34161
34157 34235
34157 34161
34157 34235
34158 34159
34158 34163
34158 34231
34158 34159
34158 34163
34158 34231
34159 34160
34159 34160
34159 34240
34159 34240
34160 34193
34160 34193
34161 34162
34161 34234
34161 34162
34161 34234
34162 34163
34162 34163
34162 34233
34162 34233
34163 34232
34163 34232
34164 34165
34164 34166
34164 34166
34164 34165
34166 39778
34166 39778
34167 34169
34167 34193
34167 34168
34167 34169
34167 34193
34167 34168
34168 34169
34168 34194
34168 34169
34168 34194
34170 34187
34170 34187
34172 34173
34172 34299
34172 34173
34172 34299
34173 34306
34173 34307
34173 34306
34173 34307
34174 34175
34174 34306
34174 34359
34174 34306
34174 34175
34174 34359
34175 34176
34175 34244
34175 34176
34175 34244
34176 34177
34176 34237
34176 34177
34176 34237
34177 34178
34177 34230
34177 34178
34177 34230
34178 34179
34178 34180
34178 34179
34178 34180
34180 34181
34180 34182
34180 34181
34180 34182
34182 34183
34182 34235
34182 34183
34182 34235
34183 34184
34183 34184
34185 34186
34185 34186
34186 34187
34186 34187
34188 34192
34188 40732
34188 34192
34188 40732
34189 34190
34189 36085
34189 34190
34189 36085
34190 34191
34190 34191
34190 36083
34190 36083
34191 34192
34191 34192
34192 40733
34192 40733
34198 34207
34198 34378
34198 34207
34198 34378
34199 34200
34199 34202
34199 34378
34199 34378
34199 34200
34199 34202
34200 34201
34200 34201
34201 34202
34201 34202
34202 34203
34202 34203
34203 34204
34203 34205
34203 34204
34203 34205
34205 34207
34205 34206
34205 34207
34205 34206
34207 34208
34207 34208
1607072 1607081
1607072 1607073
1607072 1607074
1607072 1607081
1607072 1607114
1607072 1607073
1607072 1607074
1607072 1607114
34209 34210
34209 34210
34209 36897
34209 36897
34211 34212
34211 34212
34210 34215
34210 36893
34210 34215
34210 36893
34214 34215
34214 39816
34214 34215
34214 39816
34216 34217
34216 34228
34216 34243
34216 34217
34216 34228
34216 34243
34217 34218
34217 34218
34218 34219
34218 34219
34219 34221
34219 34220
34219 34221
34219 34220
34221 34222
34221 34222
1607081 1607172
1607081 1607172
34223 34224
34223 39850
34223 34224
34223 39850
34225 34227
34225 34226
34225 34227
34225 34226
34224 34225
34224 39848
34224 34225
34224 39848
34227 34254
34227 34254
34228 34229
34228 34229
34228 34247
34228 34247
34229 34246
34229 34246
34230 34235
34230 34231
34230 34231
34230 34235
34231 34232
34231 34232
34237 34238
34237 34238
34238 34239
34238 34239
34239 34241
34239 34241
34242 34244
34242 34243
34242 34243
34242 34244
34242 34313
34242 34313
34243 34248
34243 34248
34244 34319
34244 34319
34245 34246
34245 34246
34245 34252
34245 38750
34245 34252
34245 38750
34246 38748
34246 38749
34246 38748
34246 38749
34248 34249
34248 34318
34248 34346
34248 34249
34248 34318
34248 34346
34249 34250
34249 34251
34249 38753
34249 34250
34249 34251
34249 38753
34251 34252
34251 34252
34251 38752
34251 38752
34252 38751
34252 38751
34253 34254
34253 34254
34255 34256
34255 34261
34255 34266
34255 34267
34255 34256
34255 34261
34255 34266
34255 34267
34256 34263
34256 34257
34256 34263
34256 34278
34256 34257
34256 34278
34257 34262
34257 34258
34257 34258
34257 34262
34258 34259
34258 34259
34260 34261
34260 34261
34262 34263
34262 34263
34263 34278
34263 34278
34264 34265
34264 34265
34265 34711
34265 34266
34265 34266
34265 34711
34265 34715
34265 34715
34266 34278
34266 34290
34266 34278
34266 34290
34267 34279
34267 34268
34267 34279
34267 34280
34267 34268
34267 34280
34268 34269
34268 34269
34268 34280
34268 34280
34269 34270
34269 34270
34270 34271
34270 34274
34270 34271
34270 34274
34271 34272
34271 34273
34271 34272
34271 34273
34274 34275
34274 34276
34274 34275
34274 34276
34278 34303
34278 34303
34279 34280
34279 37276
34279 34280
34279 37276
34280 34704
34280 34704
34281 34282
34281 34287
34281 35758
34281 34282
34281 34287
34281 35758
34282 34283
34282 34722
34282 34283
34282 34722
34283 34284
34283 34285
34283 34724
34283 34736
34283 34284
34283 34285
34283 34724
34283 34736
34285 34286
34285 34736
34285 34736
34285 34286
34286 34287
34286 34287
34286 34735
34286 34735
34287 34288
34287 35757
34287 34288
34287 35757
34289 34290
34289 34290
34289 34291
34289 34719
34289 34291
34289 34719
34290 34716
34290 34716
34291 34292
34291 34379
34291 34718
34291 34292
34291 34379
34291 34718
34292 34293
34292 34381
34292 34293
34292 34381
34293 34294
34293 34296
34293 34294
34293 34296
34294 34295
34294 34296
34294 34296
34294 34295
34296 34297
34296 34385
34296 34297
34296 34385
34297 34298
34297 34360
34297 34375
34297 34298
34297 34360
34297 34375
34298 34299
34298 34307
34298 34359
34298 34299
34298 34307
34298 34359
34299 34300
34299 34300
34300 34301
34300 34301
34301 34303
34301 34302
34301 34303
34301 34305
34301 34302
34301 34305
34303 34305
34303 34305
34304 34305
34304 34305
34306 34308
34306 34308
34307 34308
34307 34308
34308 34359
34308 34359
1607165 1607166
1607165 1607166
34311 34312
34311 34315
34311 34312
34311 34315
34312 34313
34312 34313
34313 34314
34313 34314
34314 34319
34314 34315
34314 34315
34314 34319
34316 34321
34316 34317
34316 34321
34316 34322
34316 39785
34316 34317
34316 34322
34316 39785
34317 34318
34317 34318
34317 39789
34317 39789
34318 34348
34318 34348
34319 34320
34319 34320
34320 34321
34320 34321
34320 39803
34320 39803
34321 39786
34321 39786
34323 34324
34323 34325
34323 35073
34323 34324
34323 34325
34323 35073
34324 34327
34324 35074
34324 34327
34324 35074
34325 34326
34325 37980
34325 34326
34325 37980
34326 34327
34326 34327
34326 37981
34326 37981
34327 42865
34327 42865
34328 34329
34328 34333
34328 34366
34328 34329
34328 34333
34328 34366
34329 34330
34329 34337
34329 39784
34329 34330
34329 34337
34329 39784
34330 34331
34330 39790
34330 34331
34330 39790
34331 34332
34331 39794
34331 34332
34331 39794
34333 34367
34333 34367
34332 34333
34332 34333
34332 39802
34332 39802
34334 34335
34334 34613
34334 34614
34334 34335
34334 34613
34334 34614
34335 34336
34335 34336
34337 34338
34337 34345
34337 34338
34337 34345
34338 34366
34338 34339
34338 34366
34338 34339
34339 34340
34339 34398
34339 34340
34339 34398
34340 34341
34340 38741
34340 34341
34340 38741
34341 34342
34341 34395
34341 34342
34341 34395
34342 34346
34342 34343
34342 34346
34342 34343
34343 34348
34343 34344
34343 34348
34343 34344
34344 39789
34344 34345
34344 34345
34344 39789
1607210 1607217
1607210 1607217
1607211 1607880
1607211 1607880
1607212 1607213
1607212 1607214
1607212 1610560
1607212 1607213
1607212 1607214
1607212 1610560
34349 34350
34349 34353
34349 34406
34349 34350
34349 34353
34349 34406
34350 34351
34350 34399
34350 34351
34350 34399
34351 34352
34351 34400
34351 34352
34351 34400
34352 34398
34352 34353
34352 34353
34352 34398
1607217 1607844
1607217 1607844
34353 34397
34353 34397
1607214 1609736
1607214 1609736
1607214 1610560
1607214 1610560
34354 34356
34354 34355
34354 34355
34354 34356
34354 34589
34354 34625
34354 34589
34354 34625
34355 34358
34355 34358
34359 34361
34359 34361
34360 34361
34360 34374
34360 34361
34360 34374
34361 34372
34361 39804
34361 34372
34361 39804
34362 34363
34362 34377
34362 42492
34362 34363
34362 34377
34362 42492
34363 34364
34363 34410
34363 34364
34363 34410
34364 34406
34364 34365
34364 34406
34364 34365
34365 34366
34365 34397
34365 34366
34365 34397
34367 39802
34367 34368
34367 39801
34367 39802
34367 34368
34367 39801
34369 34370
34369 34370
34370 34371
34370 39793
34370 34371
34370 39793
34371 34372
34371 34372
34371 39791
34371 39791
34372 34373
34372 34373
34368 34369
34368 34369
34375 34376
34375 39811
34375 34376
34375 39811
34376 34377
34376 34377
34376 34382
34376 34382
34377 34381
34377 34381
34379 34380
34379 34718
34379 34718
34379 34380
34380 34381
34380 34381
34380 42484
34380 42484
34381 42484
34381 42484
34382 34383
34382 34383
34383 34385
34383 34384
34383 34385
34383 34384
34385 39811
34385 39811
34378 38747
34378 38747
34386 34391
34386 34391
34387 34388
34387 34388
34388 34389
34388 38738
34388 34389
34388 38738
34389 34390
34389 34390
34390 34391
34390 34391
34392 34395
34392 34393
34392 34395
34392 34421
34392 38740
34392 34393
34392 34421
34392 38740
34393 34394
34393 38733
34393 34394
34393 38733
34394 34395
34394 34395
34391 34396
34391 34396
34397 34398
34397 34398
34399 34400
34399 34401
34399 34400
34399 34401
34400 34402
34400 34402
34401 34402
34401 34403
34401 34409
34401 34402
34401 34403
34401 34409
34402 34405
34402 34405
34403 34404
34403 34413
34403 34404
34403 34413
34406 34409
34406 34409
34407 34410
34407 34408
34407 34410
34407 34435
34407 34408
34407 34435
34408 34409
34408 34409
34408 34411
34408 34434
34408 34411
34408 34434
34409 34412
34409 34412
34410 34453
34410 34453
34411 34412
34411 34437
34411 34443
34411 34412
34411 34437
34411 34443
34412 34413
34412 34413
34412 34441
34412 34441
34413 34445
34413 34445
34414 34415
34414 34419
34414 34444
34414 34415
34414 34419
34414 34444
34415 34416
34415 39858
34415 34416
34415 39858
34416 34417
34416 34417
34417 34418
34417 38743
34417 34418
34417 38743
34418 34419
34418 34419
34419 34445
34419 34445
34420 34421
34420 38733
34420 34421
34420 38733
34421 34422
34421 34422
34422 41483
34422 41483
34423 42485
34423 34424
34423 34425
34423 42485
34423 34424
34423 34425
34424 34430
34424 42557
34424 34430
34424 42557
34425 34426
34425 34427
34425 34426
34425 34427
34427 34428
34427 34431
34427 34428
34427 34431
34428 34430
34428 34429
34428 34430
34428 34429
34430 42558
34430 42558
34431 34432
34431 34433
34431 34432
34431 34433
1607296 1610674
1607296 1610674
1607298 1607299
1607298 1607299
1607300 1610675
1607300 1610675
1607301 1607302
1607301 1607302
34435 42487
34435 42487
34433 41430
34433 41430
34436 34437
34436 34437
34436 42480
34436 42480
34438 34439
34438 34443
34438 34443
34438 34439
34443 34452
34443 34452
34437 42479
34437 42479
34439 39888
34439 34440
34439 39888
34439 34440
34446 39638
34446 34447
34446 34448
34446 39638
34446 39679
34446 34447
34446 34448
34446 39679
34447 39640
34447 39677
34447 34448
34447 39640
34447 39677
34447 34448
34448 39639
34448 39639
34449 34450
34449 34453
34449 34450
34449 34453
34449 34461
34449 34461
34450 34451
34450 34461
34450 34451
34450 34461
34451 34452
34451 34452
34445 38743
34445 38743
34453 42480
34453 42480
34454 34455
34454 34458
34454 34459
34454 34455
34454 34458
34454 34459
34455 34460
34455 34456
34455 34460
34455 34456
34456 34461
34456 34457
34456 34461
34456 34457
34457 42484
34457 34458
34457 34458
34457 42484
34458 42484
34458 42484
34460 34461
34460 42486
34460 34461
34460 42486
34462 39679
34462 39679
34487 34500
34487 34500
34527 34552
34527 34552
34530 34531
34530 34545
34530 34545
34530 34531
34531 34545
34531 34545
34534 34542
34534 34542
34542 34543
34542 34543
34546 34547
34546 34550
34546 34581
34546 34547
34546 34550
34546 34581
34551 35914
34551 34552
34551 35914
34551 34552
34552 34553
34552 34553
34559 34560
34559 39861
34559 34560
34559 39861
34560 34561
34560 34582
34560 34561
34560 34582
34561 34581
34561 34562
34561 34581
34561 34562
34562 34563
34562 34563
34564 34565
34564 34565
34565 34566
34565 39866
34565 34566
34565 39866
34566 34567
34566 34567
34567 39866
34567 34568
34567 39866
34567 34568
34568 34569
34568 34569
34568 41305
34568 41305
34569 41303
34569 41304
34569 41303
34569 41304
34570 34617
34570 34571
34570 34617
34570 34571
34571 34582
34571 34582
34571 39862
34571 39862
34581 39860
34581 39860
34582 34583
34582 34583
34584 34585
34584 34598
34584 34585
34584 34598
34585 36919
34585 34586
34585 36919
34585 34586
34586 36920
34586 34587
34586 34587
34586 36920
34588 34634
34588 34634
34589 34590
34589 39864
34589 34590
34589 39864
34590 34591
34590 34651
34590 34591
34590 34651
34591 34592
34591 34593
34591 34650
34591 34592
34591 34593
34591 34650
34593 34594
34593 36924
34593 34594
34593 36924
34594 34595
34594 36923
34594 34595
34594 36923
34595 34596
34595 34597
34595 34596
34595 34597
34597 34598
34597 34598
34597 36922
34597 36922
34598 34599
34598 36921
34598 34599
34598 36921
34600 34601
34600 34688
34600 34601
34600 34688
34601 34602
34601 34684
34601 34602
34601 34684
34602 34603
34602 34667
34602 34603
34602 34667
34603 34604
34603 34604
34604 34605
34604 34606
34604 34605
34604 34606
34606 34607
34606 34608
34606 34660
34606 34607
34606 34608
34606 34660
34608 34609
34608 34609
34608 34683
34608 34683
34610 34611
34610 34612
34610 34616
34610 34611
34610 34612
34610 34616
34611 34614
34611 34614
34611 39869
34611 39869
34612 34617
34612 34613
34612 39862
34612 34613
34612 34617
34612 39862
34613 39861
34613 39861
34614 34615
34614 34615
34616 34617
34616 34617
34616 34627
34616 34627
34618 34619
34618 34620
34618 34621
34618 34619
34618 34620
34618 34621
34619 34678
34619 34633
34619 34678
34619 34633
34621 34622
34621 34639
34621 34622
34621 34639
34622 34623
34622 34624
34622 34623
34622 34624
34624 34625
34624 34625
34624 34638
34624 34638
34625 34626
34625 34626
34627 34628
34627 34629
34627 34628
34627 34629
34629 34630
34629 34631
34629 34630
34629 34631
34631 34633
34631 34632
34631 34633
34631 34632
34633 39867
34633 39867
34635 34639
34635 34636
34635 34639
34635 34680
34635 34636
34635 34680
34636 34637
34636 34681
34636 34637
34636 34681
34637 34638
34637 34638
34637 34673
34637 34673
34638 34677
34638 34677
34639 34678
34639 34678
34640 34641
34640 34642
34640 34666
34640 34641
34640 34642
34640 34666
34641 34652
34641 34655
34641 34652
34641 34655
34642 34643
34642 37091
34642 34643
34642 37091
34643 34644
34643 36926
34643 34644
34643 36926
34644 34645
34644 34646
34644 34645
34644 34646
34646 34647
34646 34648
34646 36928
34646 34647
34646 34648
34646 36928
34648 34649
34648 36927
34648 34649
34648 36927
34649 34650
34649 34650
34651 34652
34651 39863
34651 34652
34651 39863
34652 34656
34652 34656
34653 34654
34653 34658
34653 34662
34653 39884
34653 34654
34653 34658
34653 34662
34653 39884
34654 34666
34654 34655
34654 34655
34654 34666
34656 34657
34656 34657
34657 34658
34657 34658
34657 39865
34657 39865
34658 39885
34658 39885
34659 34660
34659 34660
34659 34663
34659 34682
34659 34663
34659 34682
34660 34661
34660 39893
34660 34661
34660 39893
34661 34662
34661 34662
34661 34664
34661 34672
34661 34664
34661 34672
34662 34663
34662 34663
34664 34665
34664 34671
34664 34665
34664 34671
34665 34666
34665 34666
34665 34670
34665 34670
34667 34668
34667 34672
34667 34672
34667 34668
34668 34669
34668 34685
34668 34669
34668 34685
34669 34670
34669 34670
34669 37093
34669 37093
34670 37092
34670 37092
34672 39893
34672 39893
34673 34674
34673 39881
34673 34674
34673 39881
34674 39885
34674 34675
34674 39885
34674 34675
34675 34677
34675 34676
34675 34677
34675 34676
34679 34680
34679 34681
34679 39881
34679 34680
34679 34681
34679 39881
34680 39887
34680 39887
34682 34683
34682 39884
34682 34683
34682 39883
34682 39884
34682 39883
34683 39882
34683 39882
34684 34685
34684 35930
34684 34685
34684 35930
34685 35928
34685 35928
34685 35929
34685 35929
34686 35935
34686 34687
34686 34689
34686 35935
34686 42822
34686 34687
34686 34689
34686 42822
34687 34688
34687 34688
34687 35934
34687 35934
34688 34689
34688 34689
34689 42823
34689 42823
34690 34691
34690 42811
34690 34691
34690 42811
34691 42814
34691 42815
34691 42814
34691 42815
34692 34693
34692 34693
34692 34694
34692 34694
34694 34695
34694 34704
34694 34695
34694 34704
34696 34697
34696 34698
34696 34699
34696 34697
34696 34698
34696 34699
34699 34700
34699 34701
34699 34700
34699 34701
34701 34702
34701 34702
34702 34703
34702 34703
34704 34705
34704 34705
34705 34706
34705 34706
34708 34709
34708 34713
34708 34709
34708 34713
34709 34710
34709 34714
34709 34710
34709 34714
34710 34711
34710 34711
34710 34714
34710 34746
34710 34714
34710 34746
34711 34715
34711 34715
34712 34713
34712 34726
34712 34728
34712 34713
34712 34726
34712 34728
34713 34714
34713 34730
34713 34714
34713 34730
34715 34744
34715 34745
34715 34744
34715 34745
34716 34717
34716 34719
34716 34717
34716 34719
34716 34743
34716 34743
34717 34718
34717 34737
34717 34718
34717 34737
34719 34720
34719 34720
34722 34723
34722 35760
34722 35763
34722 34723
34722 35760
34722 35763
34723 34724
34723 34724
34723 34773
34723 35763
34723 35763
34723 34773
34724 35790
34724 34775
34724 35790
34724 34775
34725 34727
34725 34726
34725 34726
34725 34727
34725 34940
34725 34940
34726 34939
34726 42560
34726 34939
34726 42560
34727 34942
34727 34942
34728 34729
34728 35755
34728 34729
34728 35755
34729 34730
34729 34730
34729 34770
34729 34770
34730 34733
34730 34750
34730 34733
34730 34750
34731 34732
34731 34732
34733 34735
34733 34734
34733 34735
34733 34750
34733 34750
34733 34734
34735 35757
34735 35757
34736 34737
34736 34737
34737 34738
34737 34738
34738 34739
34738 34742
34738 34739
34738 34742
34739 34740
34739 34741
34739 34740
34739 34741
34747 34748
34747 34748
34748 34749
34748 34749
34750 35756
34750 35756
34751 34752
34751 34756
34751 40580
34751 34752
34751 34756
34751 40580
34752 34753
34752 40579
34752 34753
34752 40579
34753 34754
34753 40577
34753 34754
34753 40577
34754 40576
34754 34755
34754 40576
34754 34755
34755 34756
34755 34756
34755 40582
34755 40582
34756 40581
34756 40581
34757 34758
34757 34767
34757 34758
34757 34767
34758 34759
34758 39212
34758 34759
34758 39212
34759 40853
34759 34760
34759 40853
34759 34760
34760 34761
34760 34761
34761 34762
34761 34762
34762 34763
34762 42135
34762 34763
34762 42135
34763 34764
34763 34832
34763 34764
34763 34832
34764 34765
34764 34863
34764 34864
34764 34765
34764 34863
34764 34864
34765 34766
34765 34863
34765 34863
34765 34766
34766 34767
34766 34767
34766 34799
34766 34799
34767 34797
34767 34824
34767 34797
34767 34824
34770 34771
34770 34772
34770 35794
34770 34771
34770 34772
34770 35794
34771 34772
34771 35806
34771 42561
34771 34772
34771 35806
34771 42561
34772 35755
34772 35755
34773 34774
34773 34775
34773 34775
34773 34774
34774 35790
34774 34775
34774 34775
34774 35790
34774 42536
34774 42536
34775 42535
34775 42535
34776 34777
34776 34787
34776 35083
34776 35084
34776 34777
34776 34787
34776 35083
34776 35084
34777 34778
34777 35083
34777 35083
34777 34778
34778 34779
34778 34780
34778 34779
34778 34780
34780 34781
34780 41739
34780 34781
34780 41739
34781 34782
34781 34783
34781 34782
34781 34783
34783 34784
34783 42166
34783 34784
34783 42166
34784 34785
34784 34786
34784 34785
34784 34786
34786 34787
34786 34787
34786 42165
34786 42165
34787 40704
34787 40958
34787 40704
34787 40958
34788 34847
34788 34789
34788 34847
34788 41980
34788 34789
34788 41980
34789 34790
34789 34790
34789 34848
34789 34848
34790 41091
34790 41091
34791 34792
34791 34794
34791 34822
34791 39738
34791 34792
34791 34794
34791 34822
34791 39738
34792 34793
34792 39726
34792 39737
34792 34793
34792 39737
34792 39726
34793 34794
34793 34794
34793 39724
34793 39724
34794 41091
34794 34822
34794 41091
34794 34822
34795 34796
34795 39994
34795 34796
34795 39994
34796 39994
34796 39994
34797 34798
34797 34798
34798 34800
34798 34830
34798 34800
34798 34830
34799 34800
34799 34869
34799 41981
34799 34800
34799 34869
34799 41981
34800 34867
34800 34867
34801 34802
34801 34925
34801 34802
34801 34925
34802 34803
34802 34803
34802 35437
34802 39760
34802 35437
34802 39760
34803 34917
34803 35411
34803 34917
34803 35411
34804 34805
34804 39731
34804 34805
34804 39731
34805 39717
34805 39717
34806 34816
34806 34807
34806 34816
34806 34817
34806 34807
34806 34817
34807 34808
34807 34809
34807 34808
34807 34809
34809 34810
34809 34811
34809 34810
34809 34811
34811 34812
34811 34818
34811 34821
34811 34812
34811 34821
34811 34818
34812 34813
34812 39905
34812 34813
34812 39905
34813 34814
34813 34814
34813 39906
34813 39906
34814 39904
34814 39904
34816 39983
34816 39983
34818 34819
34818 39982
34818 34819
34818 39982
34819 34820
34819 34825
34819 39981
34819 34820
34819 34825
34819 39981
34820 34821
34820 34821
34820 34828
34820 34828
34822 41091
34822 39738
34822 41091
34822 39738
34823 34824
34823 34824
34824 34917
34824 34829
34824 34917
34824 34829
34825 34826
34825 34860
34825 34826
34825 34860
34826 34859
34826 34827
34826 34859
34826 34827
34827 34828
34827 34828
34827 39900
34827 39900
34828 39905
34828 39905
34829 34830
34829 34830
34829 37687
34829 37687
34830 34866
34830 34866
34831 34832
34831 34864
34831 34832
34831 34835
34831 34864
34831 34835
34832 42135
34832 34833
34832 42135
34832 34833
34833 42135
34833 34834
34833 42135
34833 34834
34834 42135
34834 34835
34834 34835
34834 39996
34834 42135
34834 39996
34835 40995
34835 40995
34836 34847
34836 34869
34836 34847
34836 34869
34837 34838
34837 34838
34838 34839
34838 34839
34839 40514
34839 34840
34839 40514
34839 34840
34840 34841
34840 40516
34840 34841
34840 40516
34841 34842
34841 34842
34841 40515
34841 40515
34842 39619
34842 39619
34843 34844
34843 40518
34843 34844
34843 40518
34844 34845
34844 40517
34844 34845
34844 40517
34845 42715
34845 34846
34845 34846
34845 42715
34848 34849
34848 34849
34849 34863
34849 34863
34850 34851
34850 39690
34850 39690
34850 34851
34851 34852
34851 34853
34851 34852
34851 34853
34853 34854
34853 34855
34853 34854
34853 34855
34855 34856
34855 34856
34855 39687
34855 39687
34856 39685
34856 39685
34859 34860
34859 34860
34860 34861
34860 34861
34861 34862
34861 34862
34863 34864
34863 34864
34865 34866
34865 34866
34865 34872
34865 34873
34865 34872
34865 34873
34866 41697
34866 41697
34867 34868
34867 34868
34868 34869
34868 34869
34869 41979
34869 41979
34870 34871
34870 40960
34870 34871
34870 40960
34871 34872
34871 34872
34871 40959
34871 40959
34872 40958
34872 40958
34873 34874
34873 34876
34873 34874
34873 34876
34874 34875
34874 34876
34874 34876
34874 34875
1607737 1610040
1607737 1610040
34883 35105
34883 35105
34885 34886
34885 35130
34885 35130
34885 34886
34886 34887
34886 35149
34886 35155
34886 34887
34886 35149
34886 35155
34887 34888
34887 35155
34887 35155
34887 34888
34888 34889
34888 35019
34888 34889
34888 35019
34889 34890
34889 34966
34889 34890
34889 34966
34890 34891
34890 34965
34890 34891
34890 34965
34891 34892
34891 34981
34891 34892
34891 34981
34892 34893
34892 34893
34892 34982
34892 34982
34893 34899
34893 34899
34894 34899
34894 34895
34894 34899
34894 34973
34894 34999
34894 34895
34894 34999
34894 34973
34895 34896
34895 35012
34895 34896
34895 35012
34896 34897
34896 34978
34896 34897
34896 34978
34897 34898
34897 34979
34897 34898
34897 34979
34898 34899
34898 34899
34899 34975
34899 34975
34900 34901
34900 34903
34900 40850
34900 42728
34900 34901
34900 34903
34900 40850
34900 42728
34901 39217
34901 34902
34901 39217
34901 39233
34901 34902
34901 39233
34902 39218
34902 34903
34902 34903
34902 39218
34902 39232
34902 39232
34903 39234
34903 39246
34903 39234
34903 39246
34904 34905
34904 34906
34904 34910
34904 34905
34904 34906
34904 34910
34905 34906
34905 34915
34905 34906
34905 34915
34906 35007
34906 35007
34907 34908
34907 34909
34907 35050
34907 34908
34907 34909
34907 35050
34908 34909
34908 35075
34908 34909
34908 35075
34909 35087
34909 35087
34910 34911
34910 34964
34910 35014
34910 34911
34910 34964
34910 35014
34911 34912
34911 36930
34911 34912
34911 36930
34912 34913
34912 36932
34912 34913
34912 36932
34913 34914
34913 36931
34913 34914
34913 36931
34914 34915
34914 34915
34914 35062
34914 35062
34915 35051
34915 35051
34917 37687
34917 37687
34918 34919
34918 34920
34918 34928
34918 34919
34918 34920
34918 34928
34919 34921
34919 34929
34919 34956
34919 34921
34919 34929
34919 34956
34920 34921
34920 35711
34920 34921
34920 35711
34921 35389
34921 36941
34921 35389
34921 36941
34922 34923
34922 34924
34922 37285
34922 39771
34922 34923
34922 34924
34922 37285
34922 39771
34923 34924
34923 35713
34923 34924
34923 35713
34924 39760
34924 35436
34924 39760
34924 35436
34925 34926
34925 35753
34925 34926
34925 35753
34926 34927
34926 35753
34926 35753
34926 34927
34927 34928
34927 34928
34927 40849
34927 40849
34928 35712
34928 35712
34929 34931
34929 34930
34929 34931
34929 34930
34931 34956
34931 34956
34932 34933
34932 42290
34932 34933
34932 42290
34933 42289
34933 42289
34934 34935
34934 34936
34934 35706
34934 34935
34934 34936
34934 35706
34935 34941
34935 35702
34935 42048
34935 34941
34935 35702
34935 42048
34936 34937
34936 34938
34936 34937
34936 34938
34938 34939
34938 34939
34938 35708
34938 35840
34938 35708
34938 35840
34939 34940
34939 34940
34939 34946
34939 34946
34940 34941
34940 34941
34941 34942
34941 34942
34942 36929
34942 36929
34943 34944
34943 34948
34943 35865
34943 34944
34943 34948
34943 35865
34944 34945
34944 35776
34944 35778
34944 34945
34944 35776
34944 35778
34945 34946
34945 34946
34945 35776
34945 35858
34945 35776
34945 35858
34946 34947
34946 34947
34947 34948
34947 34948
34947 35864
34947 35864
34948 35864
34948 35865
34948 35865
34948 35864
34949 34950
34949 34950
34950 34951
34950 34951
34951 39699
34951 34952
34951 39699
34951 34952
34952 34953
34952 34953
34953 39698
34953 39698
34954 34955
34954 34955
34956 34957
34956 34957
34956 34958
34956 34958
34957 34958
34957 42136
34957 42136
34957 34958
34958 35392
34958 42137
34958 35392
34958 42137
34959 34960
34959 34960
34960 34961
34960 34961
34960 39923
34960 39923
34961 39924
34961 39924
34962 34964
34962 34963
34962 34964
34962 35056
34962 34963
34962 35056
34963 34968
34963 35045
34963 34968
34963 35045
34964 34965
34964 34965
34964 35055
34964 35055
34965 35015
34965 35015
34966 34967
34966 35024
34966 34967
34966 35024
34967 34968
34967 34968
34967 35025
34967 35025
34968 35046
34968 35046
34969 34970
34969 34977
34969 35017
34969 34970
34969 34977
34969 35017
34970 34971
34970 35011
34970 34971
34970 35011
34971 34972
34971 34983
34971 34972
34971 34983
34972 34973
34972 34973
34972 34990
34972 34990
34973 34974
34973 34974
34974 34999
34974 34975
34974 34975
34974 34999
34975 34976
34975 34976
34976 34982
34976 34977
34976 34977
34976 34982
34977 34980
34977 34980
34978 34979
34978 34989
34978 34979
34978 34989
34979 34988
34979 34988
34980 34981
34980 34981
34981 35016
34981 35016
34983 34984
34983 35010
34983 34984
34983 35010
34984 34985
34984 35000
34984 34985
34984 35000
34985 34986
34985 35001
34985 34986
34985 35001
34986 34987
34986 34995
34986 34987
34986 34995
34987 34988
34987 34988
34987 34992
34987 34992
34988 34994
34988 34994
34989 35012
34989 34990
34989 34990
34989 35012
34990 35012
34990 35012
34991 34992
34991 34992
34991 34993
34991 34996
34991 34993
34991 34996
34992 34995
34992 34995
34993 34994
34993 34994
34993 34998
34993 34998
34995 35000
34995 35000
34996 34997
34996 35005
34996 34997
34996 35005
34997 34998
34997 34998
34997 42604
34997 42604
34998 42603
34998 42603
35000 35006
35000 35006
35002 35003
35002 35004
35002 35065
35002 35003
35002 35004
35002 35065
35003 35084
35003 35007
35003 35007
35003 35084
35004 35005
35004 35005
35005 35072
35005 35072
35006 35007
35006 35007
35006 35013
35006 35013
35008 35010
35008 35009
35008 35010
35008 35035
35008 35009
35008 35035
35009 35011
35009 35011
35009 35034
35009 35034
35010 35013
35010 35013
35011 35017
35011 35017
35013 35034
35013 35034
35014 35015
35014 35034
35014 35015
35014 35034
35016 35017
35016 35017
35018 35019
35018 35019
35018 35020
35018 35060
35018 35020
35018 35060
35019 35129
35019 35129
35021 35060
35021 35022
35021 35060
35021 35022
35020 35021
35020 35021
35023 35024
35023 35024
35024 35027
35024 35027
35022 35023
35022 35032
35022 35023
35022 35032
35026 35129
35026 35033
35026 35129
35026 35033
35027 35028
35027 35036
35027 35028
35027 35036
35028 35029
35028 35042
35028 35029
35028 35042
35025 35026
35025 39922
35025 35026
35025 39922
35029 35030
35029 35031
35029 35030
35029 35031
35031 35032
35031 35036
35031 35032
35031 35036
35032 35033
35032 35033
35033 35061
35033 35061
35036 35042
35036 35042
35043 35044
35043 35047
35043 35167
35043 35044
35043 35047
35043 35167
35044 35045
35044 35045
35044 35048
35044 35048
35045 35059
35045 35059
35046 35047
35046 35165
35046 35047
35046 35165
35047 35164
35047 35164
35048 35049
35048 35270
35048 35049
35048 35270
35049 35050
35049 35050
35049 35089
35049 35089
35050 35051
35050 35051
35051 35052
35051 35052
35052 35062
35052 35053
35052 35062
35052 35053
35053 36931
35053 35054
35053 36931
35053 35054
35054 36932
35054 35055
35054 35055
35054 36932
35055 36930
35055 36930
35056 35057
35056 35059
35056 35059
35056 35057
35057 35058
35057 35063
35057 35058
35057 35063
35058 35059
35058 35059
35060 35061
35060 35061
35064 35065
35064 35065
35064 35066
35064 35092
35064 35066
35064 35092
35065 35091
35065 35091
35066 35067
35066 35091
35066 35091
35066 35067
35067 35068
35067 35093
35067 35068
35067 35093
35068 35069
35068 35090
35068 35069
35068 35090
35069 35070
35069 40705
35069 35070
35069 40705
35070 35071
35070 39919
35070 35071
35070 39919
35071 35072
35071 35072
35071 39918
35071 39918
35072 39920
35072 39920
35073 35074
35073 37781
35073 35074
35073 37781
35074 37780
35074 37780
35075 35076
35075 35122
35075 35076
35075 35122
35076 35077
35076 35115
35076 35077
35076 35115
35077 35078
35077 35078
35078 35079
35078 35079
35079 35080
35079 40708
35079 35080
35079 40708
35080 35081
35080 40707
35080 35081
35080 40707
35081 35082
35081 40706
35081 35082
35081 40706
35082 35083
35082 35083
35082 40583
35082 40583
35084 35090
35084 35090
35085 35087
35085 35086
35085 35087
35085 35284
35085 35086
35085 35284
35086 35089
35086 35089
35086 35287
35086 35287
35087 35088
35087 35088
35089 35280
35089 35280
35090 35091
35090 35091
35094 35095
35094 35103
35094 35295
35094 35095
35094 35103
35094 35295
35095 35096
35095 35294
35095 35096
35095 35294
35096 35097
35096 35313
35096 35097
35096 35313
35097 35098
35097 35098
35097 35413
35097 35413
35098 41615
35098 41615
35099 35100
35099 40575
35099 35100
35099 40575
35100 35101
35100 35102
35100 35101
35100 35102
35102 35103
35102 35103
35102 35296
35102 35296
35105 35106
35105 35106
35108 35109
35108 35109
35109 35110
35109 35110
35109 39958
35109 39958
35111 35112
35111 35113
35111 35325
35111 35112
35111 35113
35111 35325
35112 35121
35112 35321
35112 35121
35112 35321
35113 35114
35113 40585
35113 35114
35113 40585
35114 35115
35114 35115
35114 40573
35114 40573
35115 35116
35115 35116
35116 35122
35116 35117
35116 35122
35116 35117
35117 35122
35117 35118
35117 35122
35117 35118
35118 35119
35118 35119
35119 35284
35119 35120
35119 35284
35119 35120
35120 35121
35120 35121
35120 35293
35120 35293
35121 35300
35121 35300
35123 35124
35123 35124
35123 35128
35123 35154
35123 36934
35123 35128
35123 35154
35123 36934
35124 35125
35124 35125
35125 35126
35125 35263
35125 35126
35125 35263
35126 35127
35126 35210
35126 35127
35126 35210
35127 35128
35127 35128
35127 35216
35127 35216
35128 35155
35128 35155
35129 35166
35129 35166
35130 35144
35130 35145
35130 35144
35130 35145
35133 35134
35133 35139
35133 35134
35133 35139
35134 35135
35134 35135
35134 35136
35134 35136
35136 35137
35136 35137
35137 35138
35137 35139
35137 35138
35137 35139
35140 35141
35140 35160
35140 35141
35140 35160
35141 35142
35141 35160
35141 35160
35141 35142
35142 35143
35142 35182
35142 35143
35142 35182
35143 35144
35143 35144
35143 35148
35143 35148
35144 35149
35144 35148
35144 35149
35144 35148
35146 35147
35146 35147
35148 35156
35148 35156
35149 35155
35149 35155
35150 35156
35150 35151
35150 35156
35150 35191
35150 35206
35150 35151
35150 35191
35150 35206
35151 35152
35151 35240
35151 35152
35151 35240
35152 35154
35152 35153
35152 35154
35152 35153
35154 35269
35154 35269
35156 35183
35156 35183
35157 35158
35157 35188
35157 35457
35157 35158
35157 35188
35157 35457
35158 35159
35158 35458
35158 35159
35158 35458
35159 35160
35159 35160
35159 35189
35159 35189
35160 35189
35160 35189
35161 35166
35161 35162
35161 35166
35161 35176
35161 35162
35161 35176
35162 35163
35162 35170
35162 35163
35162 35170
35163 35164
35163 35164
35163 35170
35163 35170
35164 35169
35164 35169
35165 35166
35165 39921
35165 35166
35165 39921
35167 35168
35167 35237
35167 35168
35167 35237
35168 35169
35168 35169
35168 35174
35168 35179
35168 35174
35168 35179
35169 35171
35169 35171
35170 35171
35170 35171
35171 35175
35171 35175
35172 35174
35172 35173
35172 35174
35172 35181
35172 35173
35172 35181
35173 35177
35173 35178
35173 35177
35173 35178
35174 35180
35174 35180
35175 35176
35175 35176
35176 35177
35176 35177
35178 35179
35178 35179
35178 35230
35178 35230
35179 35237
35179 35237
35182 35183
35182 35183
35185 35188
35185 35457
35185 35186
35185 35188
35185 35457
35185 35463
35185 35186
35185 35463
35186 35187
35186 35465
35186 35471
35186 35187
35186 35465
35186 35471
35187 35188
35187 35188
35187 35204
35187 35461
35187 35204
35187 35461
35188 35458
35188 35458
35189 35190
35189 35208
35189 35190
35189 35208
35190 35191
35190 35191
35190 35207
35190 35207
35191 35192
35191 35192
35192 35193
35192 35194
35192 35193
35192 35194
35195 41069
35195 41069
35196 35197
35196 35203
35196 36939
35196 35197
35196 35203
35196 36939
35197 39931
35197 35198
35197 39931
35197 35198
35198 35199
35198 36936
35198 36937
35198 35199
35198 36937
35198 36936
35199 35200
35199 35524
35199 35200
35199 35524
35200 35201
35200 35521
35200 35201
35200 35521
35201 35202
35201 35499
35201 35202
35201 35499
35202 35203
35202 35203
35202 35502
35202 35516
35202 35502
35202 35516
35203 36940
35203 36940
35204 35458
35204 35205
35204 35209
35204 35458
35204 35205
35204 35209
35205 35206
35205 35461
35205 35206
35205 35460
35205 35461
35205 35460
35206 35207
35206 35239
35206 35207
35206 35239
35208 35458
35208 35209
35208 35458
35208 35209
35210 35211
35210 35232
35210 35211
35210 35232
35211 35212
35211 35213
35211 35212
35211 35213
35212 35213
35212 35238
35212 35213
35212 35238
35213 35214
35213 35214
35214 35215
35214 35231
35214 35215
35214 35231
35215 35216
35215 35230
35215 35216
35215 35230
35217 35218
35217 35219
35217 35378
35217 35218
35217 35219
35217 35378
35218 35227
35218 35379
35218 35227
35218 35379
35219 35220
35219 35377
35219 35220
35219 35377
35220 35221
35220 35234
35220 35221
35220 35234
35221 35222
35221 35229
35221 35222
35221 35229
35222 35263
35222 35223
35222 35263
35222 35223
35223 35224
35223 35262
35223 35224
35223 35262
35224 35225
35224 35268
35224 35225
35224 35268
35225 35226
35225 35477
35225 35226
35225 35477
35226 35227
35226 35227
35227 35480
35227 35480
35228 35230
35228 35229
35228 35229
35228 35230
35228 35233
35228 35233
35229 35232
35229 35232
35229 35233
35229 35233
35230 35235
35230 35235
35231 35232
35231 35232
35233 35234
35233 35234
35234 35235
35234 35331
35234 35235
35234 35331
35235 35236
35235 35281
35235 35236
35235 35281
35236 35270
35236 35237
35236 35237
35236 35270
35239 35240
35239 35240
35239 35459
35239 35459
35240 35269
35240 35269
35241 35754
35241 35242
35241 35754
35241 35242
35242 35243
35242 35549
35242 35243
35242 35549
35243 35244
35243 35548
35243 35244
35243 35548
35244 35245
35244 35531
35244 35245
35244 35531
35245 35246
35245 35249
35245 35246
35245 35249
35246 35247
35246 35532
35246 35247
35246 35532
35247 35248
35247 35248
35248 35249
35248 35532
35248 35249
35248 35532
35249 35250
35249 35250
35250 35251
35250 35486
35250 35251
35250 35486
35251 35252
35251 35252
35252 35253
35252 35253
35253 35254
35253 35254
35254 35486
35254 35255
35254 35486
35254 35255
35255 35256
35255 35256
35256 35257
35256 35485
35256 35257
35256 35485
35257 35480
35257 35258
35257 35480
35257 35258
35258 35259
35258 35478
35258 35259
35258 35478
35259 35260
35259 35261
35259 35260
35259 35261
35261 35262
35261 35478
35261 35262
35261 35478
35262 35266
35262 35266
35263 35264
35263 35264
35265 35477
35265 35266
35265 35266
35265 35267
35265 35477
35265 35267
35266 35479
35266 35479
35267 35268
35267 35268
35268 35477
35268 35477
35269 36933
35269 36933
35270 35279
35270 35279
35271 35272
35271 35278
35271 35282
35271 35272
35271 35278
35271 35282
35272 35273
35272 35285
35272 35273
35272 35285
35273 35274
35273 35288
35273 35274
35273 35288
35274 35275
35274 35276
35274 35275
35274 35276
35276 35278
35276 35277
35276 35278
35276 35277
35278 35283
35278 35283
35279 35280
35279 35280
35279 35283
35279 35283
35280 35288
35280 35288
35281 35282
35281 35332
35281 35282
35281 35332
35282 35291
35282 35291
35285 35286
35285 35288
35285 35288
35285 35286
35286 35287
35286 35287
35286 35290
35286 35290
35287 35293
35287 35293
35289 35290
35289 35290
35289 35292
35289 35292
35290 35299
35290 35299
35291 35292
35291 35307
35291 35292
35291 35307
35292 35306
35292 35306
35293 35301
35293 35301
35294 35297
35294 35329
35294 35297
35294 35329
35296 35297
35296 40587
35296 35297
35296 40587
35297 35330
35297 35330
35299 35300
35299 35300
35299 35343
35299 35343
35300 35322
35300 35322
35302 35307
35302 35303
35302 35307
35302 35333
35302 35303
35302 35333
35303 35304
35303 39928
35303 35304
35303 39928
35304 35305
35304 39927
35304 35305
35304 39927
35305 35306
35305 35306
35305 39926
35305 39926
35306 39925
35306 39925
35307 35332
35307 35332
35308 35309
35308 35323
35308 35370
35308 35383
35308 35309
35308 35323
35308 35370
35308 35383
35309 35310
35309 35310
35310 35311
35310 35311
35311 35312
35311 35348
35311 35312
35311 35348
35312 35313
35312 35313
35312 35347
35312 35347
35313 35314
35313 35314
35314 35329
35314 35315
35314 35329
35314 35315
35315 35316
35315 35316
35316 35317
35316 35326
35316 35317
35316 35326
35317 35318
35317 35319
35317 35318
35317 35319
35319 35320
35319 35320
35320 35321
35320 35321
35320 35324
35320 35324
35321 35322
35321 35322
35322 35323
35322 35323
35323 35340
35323 35340
35324 35325
35324 35326
35324 35325
35324 35326
35325 35328
35325 35328
35326 35327
35326 35327
35327 35329
35327 35328
35327 35328
35327 35329
35328 35330
35328 35330
35330 40587
35330 40587
35331 35332
35331 35333
35331 35332
35331 35333
35333 39929
35333 39929
35335 35336
35335 43597
35335 35336
35335 43597
35336 35337
35336 43596
35336 35337
35336 43596
35337 35338
35337 35338
35337 43586
35337 43586
35340 35341
35340 35342
35340 35341
35340 35342
35341 35343
35341 35383
35341 35343
35341 35383
35342 35343
35342 35343
35342 35351
35342 35351
35344 35345
35344 35422
35344 35345
35344 35422
35345 35346
35345 35346
35346 35347
35346 35347
35346 35427
35346 35427
35347 35414
35347 35414
35348 35349
35348 35369
35348 35349
35348 35369
35349 35350
35349 35350
35349 35387
35349 35387
35350 39956
35350 39956
35352 35353
35352 35359
35352 35443
35352 35686
35352 35353
35352 35359
35352 35443
35352 35686
35353 35354
35353 35434
35353 35354
35353 35434
35354 35355
35354 35419
35354 35355
35354 35419
35355 35356
35355 35356
35355 35581
35355 35581
35356 35357
35356 35357
35357 35358
35357 35358
35358 35359
35358 35359
35358 35684
35358 35684
35359 35360
35359 35360
35361 35370
35361 35362
35361 35370
35361 35371
35361 35362
35361 35371
35362 35363
35362 40726
35362 35363
35362 40726
35363 35364
35363 40725
35363 35364
35363 40725
35364 39954
35364 35365
35364 39953
35364 39954
35364 35365
35364 39953
35365 35366
35365 35384
35365 35366
35365 35384
35366 35367
35366 35368
35366 35367
35366 35368
35368 35369
35368 35369
35368 35386
35368 35386
35369 35385
35369 35385
35370 35575
35370 35575
35372 35373
35372 35374
35372 35562
35372 35373
35372 35374
35372 35562
35373 35382
35373 35562
35373 35562
35373 35382
35374 35375
35374 35569
35374 35375
35374 35569
35375 35377
35375 35376
35375 35377
35375 35376
35377 35383
35377 35383
35379 35380
35379 35381
35379 35380
35379 35381
35381 35382
35381 35382
35381 35552
35381 35552
35382 35563
35382 35563
35384 35387
35384 35385
35384 35387
35384 35385
35385 35388
35385 35388
35387 39957
35387 39957
35389 35390
35389 36164
35389 35390
35389 36164
35390 35391
35390 36166
35390 35391
35390 36166
35391 35392
35391 35392
35391 36165
35391 42282
35391 36165
35391 42282
35392 42280
35392 42280
35393 35945
35393 35400
35393 35394
35393 35400
35393 35945
35393 35394
35394 35395
35394 35680
35394 35395
35394 35680
35395 35396
35395 35396
35396 35397
35396 41380
35396 35397
35396 41380
35397 35398
35397 35428
35397 35398
35397 35428
35398 35399
35398 35399
35399 35433
35399 35400
35399 35400
35399 35433
35401 35402
35401 35403
35401 35435
35401 35440
35401 35402
35401 35403
35401 35435
35401 35440
35402 39771
35402 35403
35402 35441
35402 39771
35402 35403
35402 35441
35403 35436
35403 35436
35404 35405
35404 35406
35404 35696
35404 35405
35404 35406
35404 35696
35405 35698
35405 35410
35405 35697
35405 35698
35405 35410
35405 35697
35406 35407
35406 35705
35406 35407
35406 35705
35407 35408
35407 35705
35407 42065
35407 35705
35407 35408
35407 42065
35408 36941
35408 35409
35408 36941
35408 35409
35409 35410
35409 35410
35410 35711
35410 35711
35411 35412
35411 35413
35411 35413
35411 35412
35412 35437
35412 35416
35412 35437
35412 35438
35412 35416
35412 35438
35413 41628
35413 41628
35414 35415
35414 35424
35414 35415
35414 35424
35415 35416
35415 35416
35415 35445
35415 35445
35416 35438
35416 35438
35417 35490
35417 35490
35418 35419
35418 35581
35418 35419
35418 35421
35418 35581
35418 35421
35419 35420
35419 35420
35420 35438
35420 35421
35420 35421
35420 35438
35421 35445
35421 35444
35421 35445
35421 35444
35422 35423
35422 35447
35422 35423
35422 35447
35423 35424
35423 35424
35423 41376
35423 41376
35424 35425
35424 35425
35425 35427
35425 35426
35425 35427
35425 35426
35427 39933
35427 39933
35428 35429
35428 35430
35428 35429
35428 35430
35429 35433
35429 35433
35430 35431
35430 35431
35430 41379
35430 41379
35431 35432
35431 35432
35434 35435
35434 35442
35434 35435
35434 35442
35435 35944
35435 35944
35436 35437
35436 35437
35439 35440
35439 35441
35439 35440
35439 35441
35439 35688
35439 35689
35439 35688
35439 35689
35440 35943
35440 35689
35440 35943
35440 35689
35441 37285
35441 37285
35442 35443
35442 35680
35442 35443
35442 35680
35443 35682
35443 35682
35443 35685
35443 35685
35444 35450
35444 35581
35444 35450
35444 35581
35445 35446
35445 35446
35446 35447
35446 35447
35446 41375
35446 41375
35447 35448
35447 35448
35448 35449
35448 39960
35448 35449
35448 39960
35449 35450
35449 35450
35449 39959
35449 39959
35451 35689
35451 35452
35451 35456
35451 35689
35451 35692
35451 35452
35451 35456
35451 35692
35452 35453
35452 35692
35452 35694
35452 35692
35452 35453
35452 35694
35453 35454
35453 35715
35453 35454
35453 35715
35454 35455
35454 35714
35454 35455
35454 35714
35455 35456
35455 35456
35455 35714
35455 35714
35456 35687
35456 35687
35457 35464
35457 35464
35457 41093
35457 41093
35459 35460
35459 35460
35459 35469
35459 39930
35459 35469
35459 39930
35460 35466
35460 35467
35460 35466
35460 35467
35461 35465
35461 35465
35461 35466
35461 35466
35462 35489
35462 35463
35462 35487
35462 35489
35462 35463
35462 35487
35463 35464
35463 35464
35463 35471
35463 35471
35464 41092
35464 41092
35465 35470
35465 35472
35465 35470
35465 35472
35466 35468
35466 35470
35466 35470
35466 35468
35467 35469
35467 35468
35467 35469
35467 35476
35467 35468
35467 35476
35468 35474
35468 35476
35468 35476
35468 35474
35469 36937
35469 36937
35470 35473
35470 35474
35470 35474
35470 35473
35471 35472
35471 35487
35471 35487
35471 35472
35472 35473
35472 35494
35472 35473
35472 35494
35473 35475
35473 35495
35473 35475
35473 35495
35474 35475
35474 35482
35474 35475
35474 35482
35475 35496
35475 35497
35475 35496
35475 35497
35476 35481
35476 39935
35476 35481
35476 39935
35478 35479
35478 35479
35480 35553
35480 35553
35481 35482
35481 35482
35481 35523
35481 35523
35482 35496
35482 35496
35483 35531
35483 35486
35483 35484
35483 35486
35483 35531
35483 35484
35484 35485
35484 35485
35484 35529
35484 35529
35485 35528
35485 35528
35487 35488
35487 35494
35487 35494
35487 35488
35488 35489
35488 35489
35488 35491
35488 35492
35488 35491
35488 35492
35489 35490
35489 35490
35490 35503
35490 35491
35490 35503
35490 35491
35491 35493
35491 35504
35491 35493
35491 35504
35492 35494
35492 35493
35492 35494
35492 35500
35492 35493
35492 35500
35493 35505
35493 35511
35493 35505
35493 35511
35494 35495
35494 35495
35495 35497
35495 35500
35495 35497
35495 35500
35496 35498
35496 35498
35497 35499
35497 35499
35497 35501
35497 35501
35498 35521
35498 35499
35498 35499
35498 35521
35500 35501
35500 35511
35500 35511
35500 35501
35501 35502
35501 35502
35501 35512
35501 35512
35502 35514
35502 35514
35503 35504
35503 35504
35504 35506
35504 35505
35504 35506
35504 35505
35505 35507
35505 35510
35505 35507
35505 35510
35506 35508
35506 35507
35506 35508
35506 35507
35507 35599
35507 35509
35507 35599
35507 35509
35508 35599
35508 35599
35509 35510
35509 35510
35509 35519
35509 35600
35509 35519
35509 35600
35510 35511
35510 35511
35510 35513
35510 35513
35511 35512
35511 35512
35512 35513
35512 35514
35512 35514
35512 35513
35513 35517
35513 35517
35514 35515
35514 35517
35514 35517
35514 35515
35515 35516
35515 35516
35515 35520
35515 35520
35516 35535
35516 35535
35517 35518
35517 35520
35517 35520
35517 35518
35518 35519
35518 35519
35518 35611
35518 35612
35518 35611
35518 35612
35519 35607
35519 35607
35520 35537
35520 35612
35520 35612
35520 35537
35521 35522
35521 35522
35522 35524
35522 35523
35522 35523
35522 35524
35524 39934
35524 39934
35525 35526
35525 35548
35525 35526
35525 35530
35525 35548
35525 35530
35526 35527
35526 35527
35527 35528
35527 35528
35527 35559
35527 35559
35528 35553
35528 35553
35529 35531
35529 35530
35529 35531
35529 35530
35530 35548
35530 35548
35533 35534
35533 37185
35533 35534
35533 37185
35535 35536
35535 36960
35535 35536
35535 36960
35536 35537
35536 35537
35536 35637
35536 35637
35537 35614
35537 35614
35538 35539
35538 35540
35538 35556
35538 35539
35538 35540
35538 35556
35539 35547
35539 35583
35539 35547
35539 35583
35540 35541
35540 35582
35540 35541
35540 35582
35541 35542
35541 35574
35541 35542
35541 35574
35542 35543
35542 35573
35542 35543
35542 35573
35543 35544
35543 35572
35543 35544
35543 35572
35544 35545
35544 35589
35544 35545
35544 35589
35545 35572
35545 35546
35545 35572
35545 35546
35546 35547
35546 35547
35546 35564
35546 35564
35547 35584
35547 35584
35549 35550
35549 35550
35549 42230
35549 42230
35550 35551
35550 35551
35552 35553
35552 35560
35552 35553
35552 35560
35554 35555
35554 40697
35554 35555
35554 40697
35555 35556
35555 35556
35555 35585
35555 35585
35556 35557
35556 35557
35557 35559
35557 35558
35557 35559
35557 35558
35559 35564
35559 35564
35560 35561
35560 35561
35560 35567
35560 35567
35561 35562
35561 35562
35564 35565
35564 35565
35565 35573
35565 35566
35565 35573
35565 35566
35566 35567
35566 35567
35566 39938
35566 39938
35567 35571
35567 35571
35568 35569
35568 35577
35568 35569
35568 35577
35569 35576
35569 35576
35570 35571
35570 35580
35570 35571
35570 35580
35571 39939
35571 39939
35572 35589
35572 35589
35573 35580
35573 35580
35574 35575
35574 35575
35574 35578
35574 35578
35575 35582
35575 35582
35577 35578
35577 35578
35578 35579
35578 35579
35579 35580
35579 35580
35582 35588
35582 35588
35585 35586
35585 40987
35585 35586
35585 40987
35586 35587
35586 40964
35586 35587
35586 40964
35587 35588
35587 35588
35587 40962
35587 40962
35588 40720
35588 40720
35590 35635
35590 35591
35590 35595
35590 35591
35590 35595
35590 35635
35591 35592
35591 35592
35592 35597
35592 42236
35592 35597
35592 42236
35593 35594
35593 35594
35594 35595
35594 35595
35596 35598
35596 41479
35596 35597
35596 35597
35596 35598
35596 41479
35597 41478
35597 42236
35597 42236
35597 41478
35598 40729
35598 40729
35599 35601
35599 35601
35600 35601
35600 35605
35600 35607
35600 35607
35600 35601
35600 35605
35601 35605
35601 35606
35601 35605
35601 35606
35602 35603
35602 35610
35602 35603
35602 35610
35603 35604
35603 35606
35603 35604
35603 35606
35603 35610
35603 35610
35604 35606
35604 35606
35605 35606
35605 35608
35605 35606
35605 35608
35607 35611
35607 35608
35607 35611
35607 35608
35608 35610
35608 35610
35608 35617
35608 35617
35609 35610
35609 35618
35609 35624
35609 35610
35609 35618
35609 35624
35611 35613
35611 35615
35611 35613
35611 35615
35612 35613
35612 35614
35612 35614
35612 35613
35613 35619
35613 35620
35613 35619
35613 35620
35614 35620
35614 35638
35614 35620
35614 35638
35615 35616
35615 35619
35615 35619
35615 35616
35616 35617
35616 35618
35616 35617
35616 35618
35616 35625
35616 35625
35617 35618
35617 35618
35619 35626
35619 35628
35619 35626
35619 35628
35620 35627
35620 35627
35621 35622
35621 39947
35621 35622
35621 39947
35622 35623
35622 35623
35623 35624
35623 35624
35623 35632
35623 35632
35624 35625
35624 35625
35625 35626
35625 35626
35626 35631
35626 35631
35627 35628
35627 35628
35627 35641
35627 35641
35628 35636
35628 35636
35629 35631
35629 35630
35629 35631
35629 35650
35629 35630
35629 35650
35630 35634
35630 35634
35630 35672
35630 35672
35631 35636
35631 35636
35632 35633
35632 35633
35633 39947
35633 39947
35634 35690
35634 35690
35635 42114
35635 42114
35636 35649
35636 35649
35637 35638
35637 36961
35637 35638
35637 36961
35638 35641
35638 35641
35639 35640
35639 35644
35639 35645
35639 35640
35639 35644
35639 35645
35640 35642
35640 35642
35641 35648
35641 35648
35642 35643
35642 41100
35642 35643
35642 41100
35643 35650
35643 35650
35643 35663
35643 35663
35645 35646
35645 41099
35645 35646
35645 41099
35646 35647
35646 41098
35646 35647
35646 41098
35647 35648
35647 35648
35647 35767
35647 35767
35648 35767
35648 35767
35649 35650
35649 35650
35651 35671
35651 35663
35651 35652
35651 35663
35651 35671
35651 35652
35652 35653
35652 37566
35652 35653
35652 37566
35653 35654
35653 35654
35654 35655
35654 35655
35655 35656
35655 35657
35655 35656
35655 35657
35657 35658
35657 36957
35657 35658
35657 36957
35658 35659
35658 35660
35658 35659
35658 35660
35660 35661
35660 35662
35660 35661
35660 35662
35662 35663
35662 35663
35664 35665
35664 35665
35665 35666
35665 35962
35665 35666
35665 35962
35666 35959
35666 35667
35666 35959
35666 35667
35667 42780
35667 35668
35667 42780
35667 35668
35668 35669
35668 42780
35668 35669
35668 42780
35669 39949
35669 39949
35670 35671
35670 35671
35672 35673
35672 35691
35672 35673
35672 35691
35673 35674
35673 35674
35673 35691
35673 35691
35674 35690
35674 35690
35680 35681
35680 35681
35681 35683
35681 41377
35681 35683
35681 41377
35682 35683
35682 35683
35683 41378
35683 41378
35687 35688
35687 35688
35688 37285
35688 37285
35690 35691
35690 35691
35692 35693
35692 35693
35693 35694
35693 35694
35693 35731
35693 35731
35694 35733
35694 37289
35694 35733
35694 37289
35695 35696
35695 35703
35695 35746
35695 35746
35695 35696
35695 35703
35696 35704
35696 35704
35698 35709
35698 35709
35700 35702
35700 35701
35700 35702
35700 35707
35700 35742
35700 35701
35700 35707
35700 35742
35701 35702
35701 35702
35701 35743
35701 35743
35702 35706
35702 35706
35703 35746
35703 35704
35703 35746
35703 35752
35703 35704
35703 35752
35704 35705
35704 35705
35704 35752
35704 35752
35705 42047
35705 42047
35706 35707
35706 35707
35707 35708
35707 35708
35708 35741
35708 35839
35708 35741
35708 35839
35709 35710
35709 35710
35711 36942
35711 36942
35712 35713
35712 40849
35712 35713
35712 40849
35713 35714
35713 35714
35715 35716
35715 37289
35715 37289
35715 35716
35716 35717
35716 35736
35716 35738
35716 35717
35716 35738
35716 35736
35717 36193
35717 35718
35717 35738
35717 36193
35717 35738
35717 35718
35718 35719
35718 35740
35718 35719
35718 35740
35719 35720
35719 35740
35719 35740
35719 35720
35720 35721
35720 35737
35720 35721
35720 35737
35721 35722
35721 35726
35721 35722
35721 35726
35722 35723
35722 35725
35722 35723
35722 35725
35723 35724
35723 35725
35723 35725
35723 35724
35726 35737
35726 35727
35726 35737
35726 35727
35727 35728
35727 35739
35727 35728
35727 35739
35728 35729
35728 35729
35728 35739
35728 35739
35729 35881
35729 35881
35730 37289
35730 37289
35731 35734
35731 35732
35731 35734
35731 35732
35732 35733
35732 35733
35733 35736
35733 35736
35734 35735
35734 35735
35735 35738
35735 35736
35735 35736
35735 35738
35736 37295
35736 37295
35737 35740
35737 35740
35739 35881
35739 35881
35741 35742
35741 35742
35741 35745
35741 35842
35741 35842
35741 35745
35742 35745
35742 35745
35743 35744
35743 42055
35743 35744
35743 42055
35744 35745
35744 35745
35744 35856
35744 42054
35744 35856
35744 42054
35745 35862
35745 35862
35747 35748
35747 35749
35747 42058
35747 35748
35747 35749
35747 42058
35749 35750
35749 42057
35749 35750
35749 42057
35750 42047
35750 35751
35750 42047
35750 35751
35751 35752
35751 35752
35753 39760
35753 39760
35753 40849
35753 40849
35754 42235
35754 42235
35755 42559
35755 42559
35756 35757
35756 35757
35756 35786
35756 35786
35757 35758
35757 35758
35758 35759
35758 35759
35759 35760
35759 35760
35759 35785
35759 35785
35760 35764
35760 35793
35760 35764
35760 35793
35761 35762
35761 35762
35761 35766
35761 35820
35761 35766
35761 35820
35762 35832
35762 35763
35762 35832
35762 35763
35763 35791
35763 35791
35764 35765
35764 35793
35764 35793
35764 35765
35765 35766
35765 35766
35766 35821
35766 35821
35767 41097
35767 41097
35768 35769
35768 35863
35768 35769
35768 35770
35768 35863
35768 35770
35769 35852
35769 35852
35770 35795
35770 35863
35770 35771
35770 35795
35770 35863
35770 35771
35771 35772
35771 35772
35771 35774
35771 35798
35771 35774
35771 35798
35774 35775
35774 35775
35774 35797
35774 42080
35774 35797
35774 42080
35775 42570
35775 42570
35776 35784
35776 35784
35777 35778
35777 35778
35777 35779
35777 35875
35777 35779
35777 35875
35778 35871
35778 35871
35779 35780
35779 35869
35779 35780
35779 35869
35780 35781
35780 35838
35780 35870
35780 35781
35780 35870
35780 35838
35781 35782
35781 35836
35781 35838
35781 35838
35781 35782
35781 35836
35782 35821
35782 35783
35782 35819
35782 35821
35782 35783
35782 35819
35783 35784
35783 35784
35783 35807
35783 42564
35783 42565
35783 35807
35783 42564
35783 42565
35785 35794
35785 35786
35785 35786
35785 35794
35787 35791
35787 35942
35787 35791
35787 35942
35788 35789
35788 35789
35792 35794
35792 35793
35792 35793
35792 35794
35792 35808
35792 35808
35795 35796
35795 35796
35796 35797
35796 35799
35796 35797
35796 35799
35797 42080
35797 42581
35797 42080
35797 42581
35799 42080
35799 35800
35799 35802
35799 42080
35799 35800
35799 35802
35800 35803
35800 35801
35800 35803
35800 35804
35800 35801
35800 35804
35801 35802
35801 35802
35801 35817
35801 35817
35802 42080
35802 42080
35802 42574
35802 42574
35803 35809
35803 35818
35803 35809
35803 35818
35806 35807
35806 42561
35806 42563
35806 42561
35806 35807
35806 42563
35807 35808
35807 42564
35807 42564
35807 35808
35809 35810
35809 36978
35809 35810
35809 36978
35810 1594981
35810 35811
35810 1594981
35810 35811
35811 35812
35811 35812
35812 35813
35812 35813
35814 35815
35814 35815
35815 35816
35815 35837
35815 35816
35815 35837
35816 35817
35816 35817
35817 42575
35817 42575
35819 35820
35819 35836
35819 35820
35819 35836
35820 35832
35820 35821
35820 35832
35820 35821
35832 35836
35832 35836
35833 35835
35833 35834
35833 35835
35833 35834
35834 35836
35834 35837
35834 35836
35834 35837
35837 35870
35837 35838
35837 35838
35837 35870
35839 35840
35839 35840
35839 35842
35839 35842
35840 35849
35840 35849
35841 42598
35841 35842
35841 35842
35841 35843
35841 42598
35841 35843
35842 42601
35842 42601
35843 35844
35843 35844
35844 35845
35844 35845
35845 35846
35845 35846
35846 35847
35846 35847
35847 35848
35847 35848
35848 35849
35848 35849
35848 35867
35848 35867
35849 35864
35849 35864
35850 35851
35850 36974
35850 42588
35850 35851
35850 36974
35850 42588
35851 36974
35851 36975
35851 36974
35851 36975
35852 35853
35852 35854
35852 42589
35852 35853
35852 35854
35852 42589
35853 35856
35853 35856
35853 42068
35853 42068
35854 42598
35854 35855
35854 42598
35854 42599
35854 35855
35854 42599
35855 35856
35855 35862
35855 35856
35855 35862
35855 42602
35855 42602
35857 35858
35857 42563
35857 35858
35857 35859
35857 42563
35857 35859
35858 35859
35858 35859
35859 42566
35859 42566
35860 35879
35860 35879
35861 41709
35861 41709
35863 36974
35863 36974
35864 42569
35864 42569
35865 35880
35865 35880
35866 35867
35866 42569
35866 35867
35866 42569
35868 35869
35868 35870
35868 35869
35868 35870
35868 35877
35868 35877
35869 35875
35869 35875
35869 35877
35869 35877
35870 42573
35870 42573
35871 35872
35871 42573
35871 42573
35871 35872
35872 35877
35872 35873
35872 35877
35872 35873
35873 35875
35873 35877
35873 35874
35873 35875
35873 35877
35873 35874
35875 35876
35875 35876
35878 35879
35878 35879
35880 42571
35880 42578
35880 42571
35880 42578
35913 35919
35913 35919
35914 35915
35914 35915
35915 35916
35915 35916
35916 39890
35916 39890
35919 35920
35919 39890
35919 39890
35919 35920
35920 35922
35920 35921
35920 35922
35920 35921
35922 39890
35922 39890
35923 35924
35923 36921
35923 36921
35923 35924
35924 36922
35924 35925
35924 36922
35924 35925
35925 36923
35925 35926
35925 36923
35925 35926
35926 35927
35926 35927
35926 36925
35926 36925
35927 36926
35927 36926
35935 42818
35935 42818
35936 35939
35936 40766
35936 40766
35936 35939
35937 35938
35937 35938
35938 35939
35938 35939
35939 40765
35939 40765
35940 35941
35940 35941
35943 36968
35943 36968
35945 35946
35945 35946
35946 35947
35946 35948
35946 35947
35946 35948
35951 40696
35951 40696
35952 35953
35952 40709
35952 35953
35952 40709
35953 35955
35953 35955
35954 35955
35954 37566
35954 37566
35954 35955
35955 37567
35955 37567
35956 35957
35956 35957
35957 41466
35957 41466
35963 35964
35963 35964
35965 35966
35965 35966
35969 35970
35969 35970
1477771 1477772
1477771 1477793
1477771 1478790
1477771 1477772
1477771 1477793
1477771 1478790
1477772 1478789
1477772 1494744
1477772 1478789
1477772 1494744
35985 40761
35985 35986
35985 40761
35985 35986
35986 35987
35986 35989
35986 35987
35986 35989
33204 33205
33204 33206
33204 33226
33204 33205
33204 33206
33204 33226
35987 35988
35987 35988
35988 35989
35988 35989
33205 33221
33205 33413
33205 33221
33205 33413
35990 35991
35990 36000
35990 35991
35990 36000
35991 35992
35991 35999
35991 35992
35991 35999
35992 35993
35992 35993
35992 35998
35992 35998
35993 35997
35993 35997
33206 33207
33206 33225
33206 33207
33206 33225
35994 35995
35994 35996
35994 35996
35994 35995
35999 36000
35999 36000
36000 36001
36000 36001
1608865 1608866
1608865 1611762
1608865 1608866
1608865 1611762
36005 36006
36005 36006
36002 36003
36002 36004
36002 36003
36002 36004
36010 36011
36010 36016
36010 36011
36010 36016
36011 36012
36011 36012
36011 36016
36011 36017
36011 36016
36011 36017
36012 36013
36012 36013
36013 36014
36013 41385
36013 36014
36013 41385
36014 36015
36014 36015
36015 37181
36015 37181
36017 36020
36017 36018
36017 36018
36017 36019
36017 36020
36017 36019
1608886 1608887
1608886 1608888
1608886 1608887
1608886 1608888
36018 36025
36018 36025
36027 36028
36027 36028
36027 145636
36027 145636
36028 41696
36028 109054
36028 41696
36028 109054
36020 36022
36020 36022
36022 36023
36022 36024
36022 36023
36022 36024
36044 36045
36044 36045
36044 36053
36044 36056
36044 36053
36044 36056
36045 36046
36045 36046
36046 40629
36046 40629
36051 36052
36051 36052
36052 36053
36052 36053
36052 36059
36052 36059
36054 36055
36054 36055
36054 36063
36054 36064
36054 36063
36054 36064
36056 36057
36056 36058
36056 36057
36056 36058
36059 36060
36059 36658
36059 36060
36059 36658
36060 42697
36060 36061
36060 42697
36060 36061
36061 36062
36061 36062
36062 36063
36062 36063
36062 41919
36062 41919
36063 40128
36063 40128
36064 36065
36064 36067
36064 36065
36064 36067
36065 36066
36065 36066
36067 36068
36067 36069
36067 36068
36067 36069
36071 36072
36071 36072
36072 36077
36072 36073
36072 36077
36072 40403
36072 36073
36072 40403
36073 36074
36073 36075
36073 36076
36073 36074
36073 36075
36073 36076
36077 39085
36077 39085
36078 36835
36078 36079
36078 39529
36078 36079
36078 36080
36078 36835
36078 39529
36078 36080
36080 36081
36080 39484
36080 36081
36080 39484
36081 36082
36081 36082
36081 36831
36081 36831
36083 36085
36083 36084
36083 36085
36083 36084
36084 36089
36084 36090
36084 36089
36084 36090
36085 36086
36085 36086
36088 37062
36088 36089
36088 37062
36088 36089
36089 42106
36089 42106
1477913 1477914
1477913 1494703
1477913 1497811
1477913 1477914
1477913 1497811
1477913 1494703
1477914 1477921
1477914 1477980
1477914 1477921
1477914 1477980
1477921 1494702
1477921 1494711
1477921 1494702
1477921 1494711
36155 36156
36155 36162
36155 36161
36155 36156
36155 36161
36155 36162
36156 36157
36156 36157
36156 42050
36156 42050
36157 36929
36157 36929
36158 36159
36158 39734
36158 36159
36158 39734
36159 36160
36159 36160
36160 36161
36160 39734
36160 36161
36160 39734
36162 36163
36162 36163
36164 42045
36164 36165
36164 42045
36164 42051
36164 36165
36164 42051
36165 42043
36165 42043
36165 42044
36165 42044
36167 36168
36167 36169
36167 36168
36167 36169
36168 36172
36168 36171
36168 36172
36168 36171
36170 36171
36170 36171
36171 36234
36171 36234
36172 36173
36172 36173
36173 36174
36173 36174
36173 36237
36173 1494912
36173 36237
36173 1494912
36174 36242
36174 36242
36179 36183
36179 36180
36179 36183
36179 36180
36180 36181
36180 36181
36181 36182
36181 36182
36182 36183
36182 36191
36182 36183
36182 36191
36183 36190
36183 36190
36188 36194
36188 36194
36190 41825
36190 41825
36194 36195
36194 36195
36195 41906
36195 41906
36196 36197
36196 36200
36196 36197
36196 36198
36196 36200
36196 36198
1609061 1609062
1609061 1609063
1609061 1609062
1609061 1609063
1609062 1610689
1609062 1609063
1609062 1610689
1609062 1609063
1609063 1609066
1609063 1609066
1609064 1609066
1609064 1609065
1609064 1609066
1609064 1609065
1609065 1609066
1609065 1609066
1609065 1610692
1609065 1610692
36197 36207
36197 36207
36198 36199
36198 36199
36200 36201
36200 36201
36200 41798
36200 41798
36201 36202
36201 36202
36202 36203
36202 36204
36202 36203
36202 36204
36207 37077
36207 37077
36211 36212
36211 36215
36211 36212
36211 36215
36212 36213
36212 36214
36212 36213
36212 36214
36215 36216
36215 36217
36215 36216
36215 36217
36218 36219
36218 36219
36219 36220
36219 36221
36219 36220
36219 36221
36228 36229
36228 36229
36229 36230
36229 36230
36229 37046
36229 37046
36230 37045
36230 37045
36231 36232
36231 36233
36231 1489275
36231 36232
36231 36233
36231 1489275
36232 36236
36232 37076
36232 36236
36232 37076
36233 36234
36233 36234
36235 36236
36235 37074
36235 36236
36235 37074
36237 36238
36237 37024
36237 36238
36237 37024
36238 36239
36238 36239
36239 37023
36239 37023
36240 37078
36240 37078
36246 36247
36246 36247
36247 36250
36247 36250
36248 36249
36248 36250
36248 36249
36248 36250
36248 36251
36248 36251
36250 37139
36250 37139
36252 36257
36252 41711
36252 36257
36252 41711
36254 36255
36254 36255
36255 36256
36255 41714
36255 36256
36255 41714
36256 41715
36256 36257
36256 36257
36256 41715
36258 36259
36258 36259
36258 42792
36258 42792
1609279 1609280
1609279 1609468
1609279 1609280
1609279 1609468
36504 36510
36504 36510
36510 40110
36510 41918
36510 40110
36510 41918
36534 36535
36534 36535
36548 36549
36548 36549
36549 37966
36549 36550
36549 37966
36549 36550
36550 36551
36550 36551
36550 37968
36550 37968
36551 36553
36551 36553
36553 36554
36553 36554
36553 36823
36553 37969
36553 36823
36553 37969
36555 36556
36555 36556
36556 37986
36556 36557
36556 37986
36556 36557
36557 36558
36557 36558
36557 36562
36557 36562
36558 36567
36558 36567
36559 36560
36559 36560
36562 36563
36562 37987
36562 36563
36562 37987
36564 36565
36564 36565
36566 36567
36566 37992
36566 36567
36566 37992
36563 36564
36563 36564
36568 36569
36568 36569
36569 36571
36569 36570
36569 36571
36569 36570
36571 36572
36571 36572
36572 36573
36572 36573
36573 42242
36573 42242
36574 36575
36574 36578
36574 36575
36574 36578
36575 36576
36575 36576
36576 36577
36576 36577
36576 36589
36576 36589
36577 38027
36577 38026
36577 38027
36577 38026
36578 36579
36578 39746
36578 36579
36578 39746
36579 36580
36579 36580
36579 39745
36579 39745
36580 43511
36580 43511
36581 37988
36581 37988
36582 36583
36582 36583
36583 36585
36583 36584
36583 36585
36583 36584
36585 36586
36585 36586
36587 36588
36587 36588
36588 36589
36588 36589
1609465 1609466
1609465 1609466
1609466 1609467
1609466 1609467
1609468 1609469
1609468 1609469
1609480 1609491
1609480 1610201
1609480 1609491
1609480 1610201
1609481 1609482
1609481 1609491
1609481 1609491
1609481 1609482
1609484 1609485
1609484 1609485
1609485 1609486
1609485 1609486
1609486 1609488
1609486 1609488
1609487 1609488
1609487 1609488
1609491 1610201
1609491 1610201
36641 36642
36641 36643
36641 36642
36641 36643
36641 40688
36641 40688
36642 40972
36642 40973
36642 40972
36642 40973
36643 40689
36643 40689
1609507 1609508
1609507 1609508
36650 38408
36650 38408
36653 36654
36653 36654
36654 38391
36654 38391
36657 42695
36657 36658
36657 38426
36657 42695
36657 36658
36657 38426
36658 42695
36658 42695
36659 36661
36659 36661
36660 36661
36660 36661
36661 38426
36661 38426
36680 36681
36680 38616
36680 38616
36680 36681
36681 38617
36681 36682
36681 38617
36681 36682
36682 36683
36682 36684
36682 41230
36682 36683
36682 36684
36682 41230
36684 36685
36684 36686
36684 36685
36684 36686
36686 36687
36686 36688
36686 36687
36686 36688
36688 36689
36688 36689
36688 41240
36688 41240
36690 36691
36690 36691
36690 36693
36690 36693
36691 36752
36691 36752
36692 36693
36692 36758
36692 36693
36692 36758
36694 38674
36694 38674
36751 39298
36751 39298
36752 36753
36752 36754
36752 36753
36752 36754
36753 36754
36753 43069
36753 36754
36753 43069
36754 36755
36754 36755
1478547 1478548
1478547 1494569
1478547 1478548
1478547 1494569
1478548 1494559
1478548 1494559
1478548 1494569
1478548 1494569
36755 36756
36755 36757
36755 36756
36755 36757
36758 38673
36758 36759
36758 38673
36758 36759
36759 38672
36759 36760
36759 38672
36759 36760
36760 36761
36760 36761
36760 38669
36760 38669
36761 38668
36761 38668
36763 36764
36763 36765
36763 36764
36763 36765
36764 36772
36764 36772
36765 36766
36765 36766
36767 36768
36767 36768
36768 36769
36768 40415
36768 36769
36768 40415
1609624 1609626
1609624 1609626
36770 36771
36770 36771
36771 40414
36771 40414
36772 36795
36772 36795
36773 36774
36773 36782
36773 36782
36773 36774
36774 36780
36774 36779
36774 36779
36774 36780
36778 39354
36778 39354
36779 39294
36779 36781
36779 36781
36779 39294
36783 36784
36783 36784
36784 36785
36784 36785
36791 36792
36791 36793
36791 36792
36791 36793
36794 36795
36794 36810
36794 36810
36794 36795
36797 36798
36797 36798
1609656 1609668
1609656 1609668
36801 36802
36801 36802
36802 36814
36802 43573
36802 36814
36802 43573
36804 36805
36804 36806
36804 36805
36804 36806
36806 36807
36806 36808
36806 36807
36806 36808
36808 36810
36808 36809
36808 36810
36808 36809
1609673 1609674
1609673 1609674
36811 36812
36811 36812
36812 36813
36812 43576
36812 36813
36812 43576
36813 36814
36813 36814
36813 43575
36813 43575
36814 43574
36814 43574
36816 36817
36816 36817
1609679 1609680
1609679 1609680
36819 36820
36819 36820
1609678 1609709
1609678 1609709
36820 36821
36820 36821
36820 39402
36820 39402
36823 36824
36823 36825
36823 36824
36823 36825
36823 37967
36823 37967
36831 36832
36831 36832
36829 36830
36829 36830
36829 39494
36829 39494
36836 36837
36836 36839
36836 36837
36836 36839
36836 42709
36836 42709
36838 42120
36838 42120
36833 36834
36833 36835
36833 36834
36833 36835
36833 36836
36833 42708
36833 36836
36833 42708
36841 36843
36841 36842
36841 36843
36841 39547
36841 36842
36841 39547
36842 36845
36842 39549
36842 36845
36842 39549
36844 36845
36844 41355
36844 41448
36844 41448
36844 36845
36844 41355
36846 36847
36846 36847
36847 36849
36847 36849
36848 36849
36848 36849
36849 36851
36849 36851
36850 36851
36850 36851
36851 36853
36851 36853
1609709 1609710
1609709 1609710
1609710 1609711
1609710 1609711
1609711 1609755
1609711 1609755
36852 36853
36852 36853
36858 36859
36858 36859
36855 36856
36855 36856
36862 36863
36862 36863
1609732 1609733
1609732 1609758
1609732 1609733
1609732 1609758
36870 36871
36870 36871
36867 36868
36867 36868
36867 36871
36867 36872
36867 36871
36867 36872
1609736 1609737
1609736 1609737
1609737 1610117
1609737 1610117
1609739 1609743
1609739 1609743
1609741 1609742
1609741 1609742
36874 36875
36874 36880
36874 36880
36874 36875
36875 36876
36875 36876
36885 36886
36885 36886
36886 37223
36886 37223
36888 36889
36888 36889
33384 33385
33384 33385
36893 36894
36893 36894
36895 39772
36895 36896
36895 39772
36895 36896
33385 33386
33385 33386
36892 36896
36892 36893
36892 36893
36892 36896
1478688 1494474
1478688 1494552
1478688 1494552
1478688 1494474
36906 36907
36906 36907
1478692 1494552
1478692 1494576
1478692 1494552
1478692 1494576
1478698 1494579
1478698 1494553
1478698 1494553
1478698 1494579
1478699 1494553
1478699 1494553
36901 36902
36901 36902
36911 36912
36911 43091
36911 36912
36911 43091
36912 36913
36912 36913
36912 36917
36912 36917
36914 36916
36914 36915
36914 36916
36914 36915
36915 39816
36915 36917
36915 36917
36915 39816
36917 39817
36917 39817
36909 36910
36909 39812
36909 36910
36909 39812
36924 36925
36924 36927
36924 36927
36924 36925
33391 33392
33391 33520
33391 33392
33391 33520
36927 36928
36927 36928
33392 33393
33392 33395
33392 33393
33392 33395
33392 33528
33392 33528
36933 36934
36933 36934
36934 39930
36934 39930
36935 36937
36935 36936
36935 39930
36935 36936
36935 36937
36935 39930
36936 39931
36936 39931
36937 39934
36937 39934
36938 36939
36938 36940
36938 36960
36938 36939
36938 36940
36938 36960
36939 37567
36939 42606
36939 37567
36939 42606
36945 36946
36945 36947
36945 36946
36945 36947
36948 38423
36948 38423
36949 36950
36949 36950
36952 36953
36952 36953
36953 39493
36953 36954
36953 39494
36953 36954
36953 39493
36953 39494
36954 36955
36954 36955
36956 36961
36956 36957
36956 41097
36956 36957
36956 36961
36956 41097
36957 36958
36957 36958
36958 36959
36958 37569
36958 36959
36958 37569
36959 36960
36959 36960
36959 37568
36959 37568
36961 36962
36961 36962
36968 36971
36968 36969
36968 36971
36968 36969
36969 36970
36969 36970
33400 36859
33400 33401
33400 36859
33400 33401
33399 33400
33399 33401
33399 33400
33399 33401
36974 36975
36974 36975
36975 42077
36975 42590
36975 42077
36975 42590
36976 36978
36976 36978
36977 36978
36977 1594985
36977 36978
36977 1594985
36979 36986
36979 36986
36982 36983
36982 36983
36983 36984
36983 36994
36983 36984
36983 36994
36984 36985
36984 36985
36985 1603443
36985 1603443
36986 1594982
36986 1594982
36988 36989
36988 36993
36988 36989
36988 36993
36989 36990
36989 36998
36989 36990
36989 36998
36990 36991
36990 1610658
36990 36991
36990 1610658
36991 36992
36991 36994
36991 36992
36991 36994
36992 36993
36992 36993
36993 36999
36993 36999
1478786 1478799
1478786 1478803
1478786 1478805
1478786 1478799
1478786 1478803
1478786 1478805
1478787 1478788
1478787 1478803
1478787 1478803
1478787 1478788
1478788 1494727
1478788 1494746
1478788 1494727
1478788 1494746
1478789 1478792
1478789 1478793
1478789 1478792
1478789 1478793
1478790 1478804
1478790 1478811
1478790 1478804
1478790 1478811
36995 37008
36995 36996
36995 36997
36995 37007
36995 37008
36995 36996
36995 36997
36995 37007
36996 37000
36996 37002
36996 37000
36996 37002
1478794 1478795
1478794 1478796
1478794 1478903
1478794 1494774
1478794 1478795
1478794 1478796
1478794 1494774
1478794 1478903
1478795 1494769
1478795 1494774
1478795 1494775
1478795 1494774
1478795 1494769
1478795 1494775
1478796 1478894
1478796 1497818
1478796 1497871
1478796 1478894
1478796 1497818
1478796 1497871
1478797 1478798
1478797 1489279
1478797 1489280
1478797 1489281
1478797 1478798
1478797 1489279
1478797 1489280
1478797 1489281
1478798 1494772
1478798 1489283
1478798 1494772
1478798 1489283
36998 41799
36998 41799
36999 37000
36999 41797
36999 37000
36999 41797
37000 37001
37000 37001
37003 37004
37003 37005
37003 37004
37003 37005
37004 1600093
37004 1600093
37005 37006
37005 37006
37005 1600092
37005 1600092
37006 41799
37006 41799
37008 37009
37008 37009
37010 37011
37010 37012
37010 1498398
37010 37011
37010 37012
37010 1498398
37012 37013
37012 1602044
37012 37013
37012 1602044
37013 37014
37013 1602044
37013 1602044
37013 37014
37014 37015
37014 37015
37015 1602046
37015 1602046
1478812 1478814
1478812 1478814
37024 37025
37024 37025
37025 37026
37025 37026
37026 37027
37026 37027
37028 37029
37028 37029
37028 40820
37028 40820
1478818 1478819
1478818 1478820
1478818 1499547
1478818 1478819
1478818 1478820
1478818 1499547
1478820 1497813
1478820 1497814
1478820 1497813
1478820 1497814
1609893 1609894
1609893 1609894
37035 37038
37035 37038
37035 37042
37035 37042
37034 37036
37034 37035
37034 37036
37034 37035
37039 37040
37039 37046
37039 1494599
37039 37046
37039 37040
37039 1494599
37040 37042
37040 37042
37037 37038
37037 37038
37042 1494597
37042 1494597
37043 37044
37043 37044
37044 37047
37044 37046
37044 37046
37044 37047
37046 1494604
37046 1494604
37048 37049
37048 37049
37048 37055
37048 37055
37049 37055
37049 37055
37050 37052
37050 37051
37050 37052
37050 37058
37050 37051
37050 37058
1478846 1497221
1478846 1497221
37051 37054
37051 37054
37051 1494773
37051 1494773
37052 37053
37052 37053
37054 37056
37054 1494770
37054 37056
37054 1494770
37055 41711
37055 37056
37055 41711
37055 1494765
37055 37056
37055 1494765
37057 37059
37057 37058
37057 37058
37057 37059
37057 38041
37057 38041
37058 1494772
37058 1494772
37062 37064
37062 37063
37062 37064
37062 37063
37064 37080
37064 37080
37065 37066
37065 37073
37065 40734
37065 37066
37065 37073
37065 40734
37066 37067
37066 37068
37066 37067
37066 37068
37068 37069
37068 40733
37068 37069
37068 40733
37069 37070
37069 37070
37070 37072
37070 37071
37070 37072
37070 37071
37072 37073
37072 37073
37073 40740
37073 40740
37074 37075
37074 37075
37075 37076
37075 37076
37076 1489275
37076 38041
37076 1489275
37076 38041
37079 37089
37079 37089
37080 42113
37080 37081
37080 42113
37080 37081
37081 37082
37081 42100
37081 37082
37081 42100
37082 37083
37082 42099
37082 37083
37082 42099
37083 37084
37083 37085
37083 37084
37083 37085
37085 37086
37085 37087
37085 37086
37085 37087
37087 37088
37087 42102
37087 37088
37087 42102
37088 40734
37088 37089
37088 37089
37088 40734
37089 40736
37089 40736
1478882 1497217
1478882 1497217
37091 37092
37091 39891
37091 37092
37091 39891
37094 37095
37094 37106
37094 37106
37094 37095
37095 37096
37095 37096
37097 37099
37097 37098
37097 37098
37097 37099
37097 42519
37097 42827
37097 42827
37097 42519
37098 41430
37098 41430
37099 42826
37099 42826
37100 37101
37100 37102
37100 37101
37100 37102
1478894 1478903
1478894 1478903
1478894 1478905
1478894 1478905
37102 37104
37102 37103
37102 37104
37102 43092
37102 37103
37102 43092
37104 37105
37104 37105
1478899 1497813
1478899 1478900
1478899 1478901
1478899 1478913
1478899 1497813
1478899 1478900
1478899 1478901
1478899 1478913
1478900 1494734
1478900 1497816
1478900 1494734
1478900 1497816
1478902 1478903
1478902 1478903
1478902 1478904
1478902 1478922
1478902 1478904
1478902 1478922
1478904 1478905
1478904 1478905
1478904 1478914
1478904 1478914
1478905 1478909
1478905 1478909
1478906 1494772
1478906 1478907
1478906 1478908
1478906 1494772
1478906 1497803
1478906 1478907
1478906 1478908
1478906 1497803
1478907 1489281
1478907 1478952
1478907 1489281
1478907 1489285
1478907 1489285
1478907 1478952
1478908 1478909
1478908 1478909
1478908 1478945
1478908 1478945
1478909 1497871
1478909 1478910
1478909 1497871
1478909 1478910
1478910 1478945
1478910 1478945
1478910 1478946
1478910 1478946
1478911 1478913
1478911 1478912
1478911 1478913
1478911 1492140
1478911 1478912
1478911 1492140
37117 37118
37117 37119
37117 37119
37117 37118
37121 37122
37121 37122
1478914 1478915
1478914 1478916
1478914 1478915
1478914 1478916
1478915 1478942
1478915 1478943
1478915 1488235
1478915 1478942
1478915 1478943
1478915 1488235
1478913 1478922
1478913 1478922
37125 40446
37125 40446
37122 37123
37122 40447
37122 37123
37122 40447
1478919 1478920
1478919 1478921
1478919 1498796
1478919 1478920
1478919 1478921
1478919 1498796
1478921 1478922
1478921 1478922
1478921 1478923
1478921 1497859
1478921 1478923
1478921 1497859
1478922 1498549
1478922 1498549
1478923 1498547
1478923 1498549
1478923 1498549
1478923 1498547
1478920 1492140
1478920 1492140
1478920 1499965
1478920 1499965
1478924 1478925
1478924 1478926
1478924 1478930
1478924 1478925
1478924 1478926
1478924 1478930
37139 41063
37139 41063
37139 43427
37139 43427
1478932 1478935
1478932 1478935
1478932 1478944
1478932 1478944
1478930 1478931
1478930 1478932
1478930 1478931
1478930 1478932
1478935 1478936
1478935 1478936
1478934 1488517
1478934 1488518
1478934 1499581
1478934 1488517
1478934 1488518
1478934 1499581
1478939 1478940
1478939 1488234
1478939 1497228
1478939 1478940
1478939 1497228
1478939 1488234
1478940 1478944
1478940 1478944
1478940 1497229
1478940 1497229
1478933 1478934
1478933 1488494
1478933 1499159
1478933 1499160
1478933 1478934
1478933 1488494
1478933 1499159
1478933 1499160
1478942 1478944
1478942 1488244
1478942 1478944
1478942 1488244
1478943 1478948
1478943 1498874
1478943 1478948
1478943 1498874
1478945 1478946
1478945 1478946
1478946 1478947
1478946 1478948
1478946 1478948
1478946 1478947
1478947 1478952
1478947 1478950
1478947 1478951
1478947 1478952
1478947 1497232
1478947 1478951
1478947 1478950
1478947 1497232
1478948 1478949
1478948 1488398
1478948 1478949
1478948 1488398
1478949 1478950
1478949 1478950
1478949 1497224
1478949 1497224
1478950 1497225
1478950 1497225
1478951 1497226
1478951 1497227
1478951 1497226
1478951 1497227
37160 37259
37160 37259
1478952 1497227
1478952 1497227
37155 37157
37155 37157
37157 39603
37157 39603
1610030 1610031
1610030 1611434
1610030 1611434
1610030 1610031
1610032 1610033
1610032 1610033
1610033 1610034
1610033 1610034
37169 37172
37169 37170
37169 37170
37169 37172
37173 37174
37173 41646
37173 41648
37173 37174
37173 41648
37173 41646
1610040 1610041
1610040 1610041
1610041 1610042
1610041 1610042
1610042 1610044
1610042 1610043
1610042 1610044
1610042 1610043
1610048 1610049
1610048 1610049
1610049 1610050
1610049 1610050
1610049 1610051
1610049 1610051
1610050 1610051
1610050 1610051
1610051 1610052
1610051 1610052
37189 37726
37189 37726
37190 37193
37190 37191
37190 37191
37190 37193
37191 37192
37191 37192
37192 37193
37192 37193
1610052 1610121
1610052 1610540
1610052 1610121
1610052 1610540
1479013 1479014
1479013 1499449
1479013 1479014
1479013 1499449
37222 37223
37222 37229
37222 37223
37222 37229
37222 39758
37222 39758
1479014 1499961
1479014 1499961
37229 37231
37229 37231
37239 37240
37239 41779
37239 37240
37239 41779
37240 37241
37240 37241
37241 37242
37241 37242
37250 37251
37250 37251
37251 41790
37251 41790
37254 37255
37254 37256
37254 37256
37254 37255
1610121 1610122
1610121 1610122
37265 40784
37265 40791
37265 40784
37265 40791
37263 37264
37263 37265
37263 37265
37263 37264
37264 37265
37264 37265
37264 40798
37264 40798
37277 37278
37277 37278
37278 37279
37278 37279
1610180 1610601
1610180 1610601
1610193 1610194
1610193 1610194
1610194 1612244
1610194 1612244
37333 37335
37333 37334
37333 37335
37333 37334
37335 39757
37335 39757
1610201 1611110
1610201 1611110
37343 37344
37343 37355
37343 37344
37343 37355
37344 37356
37344 37356
37349 37350
37349 37350
37350 37351
37350 37351
37351 39777
37351 39777
37355 37356
37355 37356
37364 42610
37364 42610
37403 37407
37403 37404
37403 37407
37403 37448
37403 37404
37403 37448
37407 37449
37407 37450
37407 37449
37407 37450
1610297 1610732
1610297 1610732
37434 37435
37434 39024
37434 37435
37434 39024
37435 39023
37435 37436
37435 37436
37435 39023
37436 39199
37436 39199
37433 37434
37433 37451
37433 39025
37433 37434
37433 37451
37433 39025
37450 37451
37450 39027
37450 37451
37450 39027
1610383 1610384
1610383 1610384
1610384 1610385
1610384 1610385
1610385 1610386
1610385 1610386
1610386 1794460
1610386 1794460
1610388 1610391
1610388 1610391
1610394 1610395
1610394 1610395
1610395 1610830
1610395 1610830
1610399 1792791
1610399 1792791
1610400 1610401
1610400 1610401
1610401 1610402
1610401 1610402
1610408 1610421
1610408 1610421
1610415 1610417
1610415 1610416
1610415 1610417
1610415 1610743
1610415 1610416
1610415 1610743
1610417 1610743
1610417 1610743
1610418 1610420
1610418 1610420
1610419 1610774
1610419 1610421
1610419 1610420
1610419 1610420
1610419 1610421
1610419 1610774
1610420 1611706
1610420 1611706
1610421 1610422
1610421 1610422
37566 40932
37566 40932
37566 40934
37566 41653
37566 41653
37566 40934
37567 42606
37567 42606
1610472 1610481
1610472 1610542
1610472 1610481
1610472 1610542
1610479 1610530
1610479 1610530
1610480 1610481
1610480 1610481
1610484 1610485
1610484 1610490
1610484 1610485
1610484 1610490
1610542 1610544
1610542 1610543
1610542 1610543
1610542 1610544
1610543 1610559
1610543 1610544
1610543 1610544
1610543 1610559
1610549 1610550
1610549 1610551
1610549 1610550
1610549 1610551
37687 41628
37687 41628
1610553 1610554
1610553 1610555
1610553 1610554
1610553 1610555
1610560 1610561
1610560 1610561
1610561 1610569
1610561 1610569
1610562 1610563
1610562 1610564
1610562 1610563
1610562 1610564
1610565 1610566
1610565 1610567
1610565 1610566
1610565 1610567
37724 37728
37724 41481
37724 41481
37724 37728
37725 37726
37725 37726
37726 42784
37726 42784
37727 37728
37727 42335
37727 37728
37727 42335
37728 42334
37728 42334
37729 41645
37729 41645
1610603 1610605
1610603 1610604
1610603 1610605
1610603 1610604
1610614 1610616
1610614 1610615
1610614 1610616
1610614 1610615
1610615 1612238
1610615 1612239
1610615 1612238
1610615 1612239
1610616 1610618
1610616 1610618
1610617 1610618
1610617 1610618
1610618 1610619
1610618 1610619
37780 37781
37780 37781
37780 37784
37780 37784
37781 37787
37781 37787
37783 37784
37783 37784
37783 37785
37783 38439
37783 37785
37783 38439
37784 38440
37784 38440
37785 38758
37785 37786
37785 38758
37785 37786
37786 37787
37786 37787
37786 38920
37786 38920
37787 39135
37787 39135
1610657 1610659
1610657 1610659
1610658 1610659
1610658 1610699
1610658 1610699
1610658 1610659
1610659 1610660
1610659 1610660
1610660 1610699
1610660 1610699
1610663 1610667
1610663 1610666
1610663 1610667
1610663 1610666
1610667 1610668
1610667 1610668
1610667 1610677
1610667 1610677
1610668 1610678
1610668 1610678
1610670 1610671
1610670 1610672
1610670 1610671
1610670 1610672
1610672 1610674
1610672 1610673
1610672 1610674
1610672 1610673
1610674 1610681
1610674 1610681
1610686 1610687
1610686 1610687
1610686 1610688
1610686 1610688
1610687 1610688
1610687 1610688
1610688 1610689
1610688 1610689
1610690 1610691
1610690 1610696
1610690 1610691
1610690 1610696
1610691 1610692
1610691 1610692
1610692 1610706
1610692 1610693
1610692 1610706
1610692 1610693
1610694 1610695
1610694 1610696
1610694 1610696
1610694 1610695
1610696 1610697
1610696 1610697
1610698 1610702
1610698 1610777
1610698 1610777
1610698 1610702
1610702 1610703
1610702 1610703
1610703 1610704
1610703 1610715
1610703 1610715
1610703 1610704
1610704 1610706
1610704 1610715
1610704 1610705
1610704 1610706
1610704 1610715
1610704 1610705
1610710 1610711
1610710 1610712
1610710 1610711
1610710 1610712
1610717 1610729
1610717 1610731
1610717 1610731
1610717 1610729
1610723 1610724
1610723 1612222
1610723 1610724
1610723 1612222
1610724 1610725
1610724 1612220
1610724 1610725
1610724 1612220
1610725 1610726
1610725 1612221
1610725 1610726
1610725 1612221
1610726 1610728
1610726 1610727
1610726 1610728
1610726 1610727
1610728 1610729
1610728 1610729
1610731 1610732
1610731 1610732
1610739 1610740
1610739 1610741
1610739 1610740
1610739 1610741
1610743 1610785
1610743 1610785
1610747 1610748
1610747 1610750
1610747 1610748
1610747 1610750
1610748 1610751
1610748 1610751
37907 42134
37907 37913
37907 42134
37907 37913
1610774 1610776
1610774 1610781
1610774 1610776
1610774 1610781
1610775 1610776
1610775 1610776
1610777 1610778
1610777 1610779
1610777 1610778
1610777 1610779
1610778 1610780
1610778 1610780
1610779 1610780
1610779 1610780
1610781 1611705
1610781 1611705
37913 40106
37913 40106
1610782 1610783
1610782 1610784
1610782 1610783
1610782 1610784
1610784 1610821
1610784 1610821
1610821 1610822
1610821 1610823
1610821 1610822
1610821 1610823
37961 40779
37961 41686
37961 40779
37961 41686
37968 39492
37968 39492
37967 37968
37967 37968
37980 37981
37980 39545
37980 37981
37980 39545
37981 39622
37981 39622
37987 37990
37987 37988
37987 37990
37987 37988
37988 37989
37988 37989
37989 38002
37989 38002
37990 37991
37990 37991
37993 37996
37993 37996
37994 37995
37994 37995
37995 38001
37995 37996
37995 37996
37995 38001
37996 38004
37996 38004
37997 38001
37997 37998
37997 38001
37997 37998
37998 37999
37998 38000
37998 37999
37998 38000
38003 38004
38003 38004
38006 38008
38006 38008
38009 38011
38009 38011
38013 38014
38013 38017
38013 38014
38013 38017
38014 38015
38014 38015
38014 38022
38014 38022
38015 38016
38015 38018
38015 38016
38015 38018
38016 38017
38016 38017
38018 38019
38018 38019
38019 38023
38019 38020
38019 38023
38019 38020
38020 38021
38020 38021
38020 38035
38020 38035
38022 38023
38022 38023
38025 38026
38025 38026
38027 38028
38027 38028
38032 38033
38032 38033
38033 38035
38033 38034
38033 38035
38033 38034
38035 41369
38035 41369
38036 38037
38036 38037
38036 38038
38036 38038
38039 38040
38039 38040
38046 38047
38046 38048
38046 38047
38046 38048
38047 38050
38047 38050
38048 38058
38048 40688
38048 38049
38048 38058
38048 40688
38048 38049
38049 38050
38049 38050
38049 38054
38049 38054
38050 38052
38050 38052
38052 40678
38052 38053
38052 40678
38052 38053
38053 40678
38053 38054
38053 38054
38053 40678
38054 38060
38054 38060
38056 38057
38056 38062
38056 38057
38056 38062
38059 38061
38059 38061
38060 40680
38060 40680
38062 38064
38062 38064
38065 38066
38065 38066
38066 38069
38066 38069
38067 38068
38067 38068
38071 38072
38071 40750
38071 38072
38071 40750
38072 38073
38072 38074
38072 38073
38072 38074
38074 40701
38074 38075
38074 40701
38074 38075
38075 38076
38075 38076
38075 40700
38075 40700
38076 40938
38076 42149
38076 40938
38076 42149
38078 38079
38078 42302
38078 38079
38078 42302
38079 38082
38079 38082
38082 42303
38082 42303
38222 38223
38222 41745
38222 41749
38222 38223
38222 41745
38222 41749
38223 41746
38223 41746
1611144 1611145
1611144 1611152
1611144 1611145
1611144 1611152
1611145 1611149
1611145 1611150
1611145 1611149
1611145 1611150
1611146 1611147
1611146 1611150
1611146 1611150
1611146 1611147
1611147 1611149
1611147 1611148
1611147 1611149
1611147 1611148
1611148 1611152
1611148 1611152
1611148 1611153
1611148 1611153
1611149 1611150
1611149 1611150
1611167 1611169
1611167 1611168
1611167 1611169
1611167 1611168
38399 38408
38399 38401
38399 38408
38399 38401
38401 42702
38401 42702
38408 41920
38408 41920
38412 42461
38412 42461
1611289 1611324
1611289 1611324
1611289 1611329
1611289 1611329
38426 38427
38426 38427
38429 38430
38429 38430
38439 38442
38439 38440
38439 38442
38439 38440
38440 38441
38440 38441
38441 38442
38441 38442
38443 38447
38443 38448
38443 38447
38443 38448
38445 38446
38445 38446
38444 38445
38444 38445
1611324 1611329
1611324 1611545
1611324 1611329
1611324 1611545
1611325 1611326
1611325 1611326
1611326 1611327
1611326 1611328
1611326 1611327
1611326 1611328
1611327 1611332
1611327 1611332
1611327 1611389
1611327 1611389
1611328 1611329
1611328 1611329
38468 38469
38468 40616
38468 38469
38468 40616
1611337 1611338
1611337 1611406
1611337 1611338
1611337 1611406
1611338 1611407
1611338 1611407
1611405 1611407
1611405 1611407
38595 38597
38595 38596
38595 38597
38595 38596
38607 38608
38607 38608
38609 38610
38609 38610
38617 41229
38617 41229
38620 38621
38620 38621
38621 38625
38621 38622
38621 38625
38621 38622
38622 38623
38622 38623
38622 38641
38622 38641
38623 38624
38623 38624
38625 38627
38625 38627
38626 38627
38626 38635
38626 38627
38626 38635
38628 38629
38628 38644
38628 38629
38628 38644
38629 38630
38629 38648
38629 38630
38629 38648
38630 38631
38630 38650
38630 38652
38630 38631
38630 38650
38630 38652
38631 38632
38631 38661
38631 38632
38631 38661
38632 38633
38632 38639
38632 38642
38632 38633
38632 38639
38632 38642
38633 38634
38633 38634
38634 38635
38634 38635
38635 38639
38635 38639
38636 39270
38636 39270
38637 38638
38637 38638
38639 38640
38639 38640
38640 38641
38640 38642
38640 38641
38640 38642
38643 38644
38643 38644
38645 38646
38645 38646
38646 38647
38646 38647
38647 38648
38647 38648
38649 38650
38649 38663
38649 38650
38649 38663
38650 38651
38650 38651
38651 38652
38651 38652
38653 38654
38653 38655
38653 38654
38653 38655
38659 38660
38659 38660
38666 38667
38666 38668
38666 38668
38666 38667
38669 38670
38669 38670
38670 38671
38670 38671
38676 38677
38676 38677
38733 38734
38733 38734
38736 38737
38736 41325
38736 38737
38736 41325
38737 40448
38737 40448
38738 38739
38738 41483
38738 41483
38738 38739
38739 38740
38739 38740
38739 41485
38739 41485
38740 38741
38740 38741
38741 41484
38741 41484
38743 38744
38743 38744
38744 38745
38744 38746
38744 38745
38744 38746
38758 38759
38758 38759
38759 38921
38759 38921
38825 39743
38825 43093
38825 39743
38825 43093
38826 38827
38826 38828
38826 41688
38826 38827
38826 38828
38826 41688
38827 38828
38827 42119
38827 38828
38827 42119
38828 41689
38828 41689
38841 38842
38841 38842
38845 42694
38845 42694
38844 38845
38844 38845
38864 38866
38864 38866
38887 38888
38887 39014
38887 38888
38887 39014
38888 38889
38888 38890
38888 39013
38888 38889
38888 38890
38888 39013
38890 38891
38890 38892
38890 39012
38890 38891
38890 38892
38890 39012
38900 38901
38900 38901
38901 38902
38901 38902
38920 38921
38920 39136
38920 38921
38920 39136
38921 40662
38921 40662
38922 38923
38922 38927
38922 42325
38922 42327
38922 38923
38922 38927
38922 42325
38922 42327
38923 38924
38923 43523
38923 38924
38923 43523
38924 38925
38924 38925
38924 42847
38924 42848
38924 42847
38924 42848
38925 38926
38925 42844
38925 38926
38925 42844
38926 38927
38926 38927
38926 42330
38926 42330
38927 42328
38927 42329
38927 42328
38927 42329
38928 38930
38928 38929
38928 38930
38928 42867
38928 38929
38928 42867
38930 38931
38930 42867
38930 42867
38930 38931
38932 38933
38932 38934
38932 38940
38932 38933
38932 38934
38932 38940
38934 38935
38934 38936
38934 38939
38934 38935
38934 38936
38934 38939
38936 38937
38936 38938
38936 38937
38936 38938
38941 38942
38941 38943
38941 38942
38941 38943
38943 38944
38943 38945
38943 38944
38943 38945
38945 38946
38945 38947
38945 38946
38945 38947
38947 38948
38947 38948
38948 38949
38948 38949
38948 42875
38948 42875
38949 38950
38949 38950
38950 42872
38950 42872
38996 43404
38996 43404
39014 39015
39014 39016
39014 39015
39014 39016
39032 41709
39032 41709
39068 39069
39068 39084
39068 39069
39068 39084
39069 39070
39069 39083
39069 39070
39069 39083
39083 39084
39083 39084
39084 39095
39084 39095
39085 39086
39085 42900
39085 39086
39085 42900
39086 39087
39086 42894
39086 39087
39086 42894
39087 39088
39087 39088
39087 42899
39087 42899
39088 39089
39088 39089
39089 39090
39089 39094
39089 39090
39089 39094
39090 39091
39090 39094
39090 39094
39090 39091
39091 39092
39091 39093
39091 39092
39091 39093
39135 39136
39135 39545
39135 39545
39135 39136
39136 39546
39136 39631
39136 39546
39136 39631
39178 39179
39178 39181
39178 42717
39178 42726
39178 39179
39178 39181
39178 42717
39178 42726
39179 39180
39179 42093
39179 39180
39179 42093
39180 39181
39180 39181
39212 39216
39212 42726
39212 42726
39212 39216
39213 39214
39213 42862
39213 39214
39213 42862
39214 39215
39214 42864
39214 39215
39214 42864
39215 39216
39215 39216
39215 42863
39215 42863
39216 42744
39216 42744
39217 39261
39217 39261
39218 39221
39218 39362
39218 39221
39218 39362
39219 39221
39219 39220
39219 39221
39219 39257
39219 39220
39219 39257
39220 39233
39220 39232
39220 39221
39220 39221
39220 39232
39220 39233
39221 39258
39221 39362
39221 39362
39221 39258
39232 39233
39232 39233
39232 39234
39232 39234
39233 42288
39233 42288
39234 42288
39234 39235
39234 42288
39234 39235
39235 39236
39235 42272
39235 39236
39235 42272
39236 39237
39236 42267
39236 39237
39236 42267
39237 39238
39237 42266
39237 39238
39237 42266
39238 39239
39238 42265
39238 39239
39238 42265
39239 39240
39239 39241
39239 39240
39239 39241
39241 39242
39241 39243
39241 39242
39241 39243
39243 39244
39243 39245
39243 39244
39243 39245
39245 39246
39245 39246
39245 42263
39245 42263
39246 40850
39246 40850
39246 42285
39246 42285
39247 39248
39247 39249
39247 39367
39247 39248
39247 39249
39247 39367
39248 39262
39248 39367
39248 39367
39248 39262
39249 39250
39249 39251
39249 39250
39249 39251
39251 39252
39251 39253
39251 39252
39251 39253
39253 39254
39253 39255
39253 39254
39253 39255
39255 39257
39255 39256
39255 39257
39255 39256
39257 42776
39257 42776
39258 39259
39258 39362
39258 39259
39258 39362
39259 39260
39259 39260
39261 39262
39261 39367
39261 39367
39261 39262
39263 42295
39263 42295
39264 39270
39264 39265
39264 39270
39264 43056
39264 39265
39264 43056
39265 39266
39265 43063
39265 39266
39265 43063
39266 39267
39266 43053
39266 39267
39266 43053
39267 39268
39267 43052
39267 39268
39267 43052
39268 39269
39268 43048
39268 39269
39268 43048
39269 39270
39269 39270
39269 43047
39269 43047
39271 39274
39271 39272
39271 39274
39271 39272
39282 39285
39282 39285
39282 39286
39282 39286
39285 39287
39285 39287
39294 39304
39294 39304
39298 39299
39298 39299
39299 39300
39299 39300
39299 41178
39299 41178
39300 41164
39300 41164
39302 39304
39302 39303
39302 39304
39302 39303
39304 39305
39304 39305
39324 39325
39324 39325
39354 39356
39354 39356
39355 39356
39355 39356
1612223 1612224
1612223 1612224
1612224 1612226
1612224 1612227
1612224 1612226
1612224 1612227
1612225 1612227
1612225 1612229
1612225 1612227
1612225 1612229
1612227 1612228
1612227 1612228
1612229 1612231
1612229 1612230
1612229 1612231
1612229 1612230
39370 39371
39370 39372
39370 39371
39370 39372
1612242 1612243
1612242 1612243
39386 39387
39386 39387
39386 39388
39386 39388
39387 39388
39387 39388
39401 39403
39401 39403
39402 39403
39402 39403
1481234 1481235
1481234 1481238
1481234 1488380
1481234 1481235
1481234 1481238
1481234 1488380
1481235 1488504
1481235 1488505
1481235 1488504
1481235 1488505
1481238 1488505
1481238 1488505
39482 39483
39482 39484
39482 39483
39482 39484
39483 39502
39483 39502
39484 39500
39484 39500
39486 39487
39486 39487
39487 39490
39487 39490
39489 39490
39489 39490
39494 39495
39494 39495
39496 39497
39496 39497
39497 39499
39497 39499
39497 39511
39497 39511
39498 39499
39498 39499
39499 39510
39499 39510
39500 39501
39500 39523
39500 39501
39500 39523
39501 39502
39501 39502
39502 41341
39502 41341
39503 39504
39503 39504
39505 39506
39505 39506
39507 39508
39507 39509
39507 39508
39507 39509
39508 42121
39508 42121
39509 42122
39509 42122
39521 39522
39521 40494
39521 39522
39521 40494
39522 39523
39522 39523
39522 40497
39522 40497
39523 39524
39523 41340
39523 39524
39523 41340
39524 39531
39524 39529
39524 39525
39524 39529
39524 39531
39524 39525
39525 39526
39525 39526
39526 39531
39526 39531
39527 39528
39527 39528
39528 39530
39528 39530
39529 39530
39529 39530
39533 39655
39533 39655
39534 39535
39534 39552
39534 39554
39534 39535
39534 39552
39534 39554
39535 39565
39535 39565
39540 39541
39540 39541
39541 39542
39541 39542
39542 39543
39542 39543
39543 39544
39543 39544
39543 40509
39543 40509
39545 39546
39545 39546
39546 39621
39546 39621
39547 39548
39547 39576
39547 39548
39547 39576
39548 39551
39548 39551
39549 39550
39549 39550
39549 41354
39549 41354
39552 39553
39552 39569
39552 39553
39552 39569
39553 39554
39553 39554
39553 42769
39553 42769
39554 42739
39554 42739
39555 39556
39555 39562
39555 39556
39555 39562
39556 39557
39556 39557
39556 39563
39556 39563
39557 39564
39557 39564
39558 39559
39558 39559
39560 39561
39560 39561
39561 39562
39561 39562
39565 39566
39565 42737
39565 39566
39565 42737
39566 39569
39566 39567
39566 39569
39566 39567
39567 39569
39567 39568
39567 39569
39567 39568
39570 39572
39570 39571
39570 39572
39570 39574
39570 39571
39570 39574
39572 39576
39572 39576
39573 39574
39573 39577
39573 39574
39573 39577
39574 39575
39574 39575
39576 41072
39576 41072
39589 39590
39589 39593
39589 39590
39589 39593
39590 39591
39590 40864
39590 39591
39590 40864
39591 39592
39591 40863
39591 39592
39591 40863
39592 39593
39592 39593
39592 40862
39592 40862
39593 39594
39593 39595
39593 39594
39593 39595
39595 39596
39595 39597
39595 39596
39595 39597
39610 39611
39610 39612
39610 39612
39610 39611
39612 39613
39612 39613
39614 39615
39614 39615
39615 39616
39615 39616
39618 39619
39618 39619
39621 39622
39621 39622
39621 39633
39621 39633
39622 39715
39622 39715
39623 39626
39623 39624
39623 39625
39623 39626
39623 39624
39623 39625
39624 39628
39624 39628
39624 43567
39624 43567
39626 39627
39626 39627
39628 39629
39628 39629
39631 39632
39631 40663
39631 39632
39631 40663
39632 39633
39632 39633
39632 39703
39632 39703
39633 39702
39633 39702
39636 39638
39636 39637
39636 39638
39636 39648
39636 39637
39636 39648
39638 39651
39638 39651
39640 39641
39640 39641
39640 39677
39640 39677
39641 40965
39641 40965
39642 39643
39642 39644
39642 39643
39642 39644
39644 39645
39644 39646
39644 39645
39644 39646
39646 39648
39646 39647
39646 39648
39646 39647
39648 39649
39648 39649
39653 39654
39653 39654
39653 42714
39653 42714
39654 39655
39654 39655
39655 39656
39655 39656
39656 43224
39656 43224
39657 42259
39657 39658
39657 42259
39657 39658
39658 42259
39658 42259
39659 39660
39659 39661
39659 39671
39659 39660
39659 39661
39659 39671
39661 39696
39661 39662
39661 39662
39661 39696
39665 39666
39665 39669
39665 39666
39665 39669
39666 39667
39666 39668
39666 39667
39666 39668
39669 39670
39669 41077
39669 39670
39669 41077
39670 39671
39670 39671
39670 41081
39670 41081
39671 41080
39671 41080
39672 39691
39672 39691
39673 39674
39673 39675
39673 39674
39673 39675
39677 39678
39677 39678
39679 39680
39679 39680
39680 39681
39680 39682
39680 39681
39680 39682
39682 39683
39682 41692
39682 39683
39682 41692
39683 39685
39683 39684
39683 39685
39683 39684
39685 39686
39685 39686
39687 39688
39687 39689
39687 39688
39687 39689
39691 39692
39691 39695
39691 39692
39691 39695
39692 39693
39692 39694
39692 39693
39692 39694
39696 41078
39696 41079
39696 41078
39696 41079
39698 39699
39698 39699
39700 39702
39700 39701
39700 39702
39700 39716
39700 39701
39700 39716
39701 39704
39701 40133
39701 41854
39701 39704
39701 40133
39701 41854
39702 39715
39702 39715
39703 39704
39703 39704
39704 41141
39704 41141
39705 39706
39705 39707
39705 39708
39705 39706
39705 39707
39705 39708
39706 39743
39706 39714
39706 39743
39706 39714
39708 39709
39708 39710
39708 39709
39708 39710
39710 39711
39710 39712
39710 39711
39710 39712
39712 39714
39712 39713
39712 39714
39712 39713
39714 39742
39714 39742
39715 39716
39715 39716
39716 40134
39716 40134
39717 39718
39717 39718
39718 39719
39718 39719
39719 39720
39719 39720
39720 39721
39720 39721
39721 39722
39721 39722
39722 39723
39722 39723
39723 39724
39723 39724
39724 39725
39724 39725
39725 39726
39725 39726
39726 39737
39726 39727
39726 39737
39726 39727
39727 39728
39727 41937
39727 41939
39727 39728
39727 41937
39727 41939
39728 39729
39728 42022
39728 39729
39728 42022
39729 39730
39729 42023
39729 39730
39729 42023
39730 39731
39730 39731
39730 41869
39730 42023
39730 42023
39730 41869
39731 40002
39731 40002
39732 39733
39732 39733
39735 39736
39735 39739
39735 39736
39735 39739
39737 39738
39737 39738
39738 41939
39738 41939
39739 39740
39739 39740
39742 39755
39742 39755
39743 39744
39743 39744
39744 39745
39744 39745
39744 43094
39744 43094
39746 39747
39746 39747
39746 40522
39746 40522
39747 39748
39747 39748
39748 39749
39748 43090
39748 39749
39748 43090
39749 39750
39749 42262
39749 39750
39749 42262
39750 39751
39750 40179
39750 39751
39750 40179
39751 39752
39751 39907
39751 39941
39751 39752
39751 39907
39751 39941
39752 39754
39752 39753
39752 39754
39752 39907
39752 39907
39752 39753
39754 39755
39754 39756
39754 40178
39754 39756
39754 39755
39754 40178
39761 39764
39761 39764
39762 39763
39762 39763
39763 39764
39763 39764
39764 39766
39764 39766
39765 39766
39765 39766
39767 39768
39767 39768
39768 39769
39768 39769
39769 39773
39769 39773
39776 39777
39776 39777
39777 43494
39777 43494
39783 39784
39783 39784
39783 39787
39783 39787
39784 39785
39784 39785
39785 39788
39785 39788
39786 39787
39786 39796
39786 39787
39786 39796
39787 39790
39787 39790
39788 39789
39788 39789
39791 39792
39791 39792
39792 39793
39792 39806
39792 39793
39792 39806
39793 39801
39793 39801
39794 39795
39794 39796
39794 39796
39794 39795
39795 39796
39795 39796
39796 39818
39796 39818
39797 39798
39797 39799
39797 39807
39797 39798
39797 39799
39797 39807
39798 39808
39798 39808
39799 39801
39799 39800
39799 39801
39799 39800
39806 39807
39806 39807
39808 39809
39808 39810
39808 39809
39808 39810
39809 39810
39809 39810
39848 39850
39848 39849
39848 39850
39848 39849
39857 39859
39857 39859
39859 39889
39859 39889
39863 39864
39863 39864
39864 39865
39864 39865
39865 40466
39865 40466
39866 39879
39866 39879
39867 39868
39867 39868
39869 39871
39869 39870
39869 39871
39869 39870
39872 39873
39872 39874
39872 39873
39872 39874
39875 39876
39875 39879
39875 39879
39875 39876
39876 39877
39876 39878
39876 39877
39876 39878
39879 39880
39879 39880
39884 39892
39884 39892
39885 39886
39885 39886
39888 39889
39888 39889
39894 39895
39894 39895
39895 39896
39895 39897
39895 39896
39895 39897
39898 39899
39898 39899
39899 39904
39899 39900
39899 39900
39899 39904
39900 39901
39900 39901
39901 39902
39901 39902
39903 39904
39903 39904
39907 39945
39907 39945
39908 39909
39908 39916
39908 43088
39908 39909
39908 39916
39908 43088
39909 39910
39909 43087
39909 39910
39909 43087
39910 42262
39910 39911
39910 42262
39910 39911
39911 39912
39911 39913
39911 39912
39911 39913
39913 39914
39913 41949
39913 39914
39913 41949
39914 39916
39914 39915
39914 39916
39914 39915
39916 39917
39916 39917
39919 40960
39919 39920
39919 40960
39919 39920
39920 42605
39920 42605
39931 42606
39931 42606
39936 39937
39936 39937
39941 39942
39941 40187
39941 41029
39941 39942
39941 40187
39941 41029
39942 39943
39942 41105
39942 39943
39942 41105
39943 39944
39943 40188
39943 39944
39943 40188
39944 40178
39944 39945
39944 39945
39944 40178
39945 40178
39945 39946
39945 40178
39945 39946
39950 39951
39950 39952
39950 39969
39950 39951
39950 39952
39950 39969
39951 39952
39951 39970
39951 39952
39951 39970
39952 39968
39952 39968
39954 40724
39954 40724
39962 39963
39962 40844
39962 39963
39962 40844
39963 39964
39963 39965
39963 39964
39963 39965
39965 39966
39965 40847
39965 39966
39965 40847
39966 39968
39966 39967
39966 39968
39966 39967
39968 39971
39968 39971
39971 40846
39971 39972
39971 40846
39971 39972
39972 39973
39972 39991
39972 39973
39972 39991
39973 39974
39973 39975
39973 39993
39973 39974
39973 39975
39973 39993
39975 39976
39975 39979
39975 39976
39975 39979
39976 39977
39976 39990
39976 39977
39976 39990
39977 39978
39977 40997
39977 39978
39977 39988
39977 39989
39977 40997
39977 39988
39977 39989
39978 40992
39978 40992
39979 39981
39979 39980
39979 39981
39979 39980
39981 39992
39981 39992
39983 39999
39983 39984
39983 39999
39983 39984
39984 39985
39984 40001
39984 39985
39984 40001
39985 39986
39985 39986
39986 39987
39986 39987
39987 39988
39987 40001
39987 39988
39987 40001
39991 39992
39991 41661
39991 39992
39991 41661
39992 41660
39992 41660
39994 41871
39994 41871
39995 39996
39995 39997
39995 39996
39995 39997
39996 39998
39996 39998
39997 39998
39997 40988
39997 42024
39997 39998
39997 40988
39997 42024
39999 40000
39999 40000
40001 40002
40001 40002
40002 40997
40002 40997
40104 40105
40104 40106
40104 40105
40104 40106
40105 40110
40105 40110
40106 43487
40106 43487
40110 41917
40110 41917
40126 40127
40126 40127
40127 40128
40127 40128
40128 41931
40128 41931
40133 40134
40133 41853
40133 40134
40133 41853
40134 43308
40134 43308
40179 40180
40179 43080
40179 40180
40179 43080
40180 40187
40180 40181
40180 40187
40180 40181
40181 40182
40181 40190
40181 40182
40181 40190
40182 40183
40182 40184
40182 40183
40182 40184
40184 40185
40184 40186
40184 40185
40184 40186
40186 40187
40186 40187
40186 40189
40186 40189
40188 41105
40188 41105
34046 34551
34046 34047
34046 34048
34046 34551
34046 35922
34046 34047
34046 34048
34046 35922
40403 40404
40403 40405
40403 40407
40403 40404
40403 40405
40403 40407
40405 40406
40405 40407
40405 40407
40405 40406
40407 40408
40407 40408
40446 40447
40446 40447
40448 41323
40448 41323
40486 40902
40486 40902
40490 40493
40490 40493
40491 42463
40491 40492
40491 40492
40491 42463
40492 42463
40492 40493
40492 42463
40492 40493
40493 42474
40493 42474
40494 40495
40494 40495
40495 40496
40495 40496
40496 41341
40496 40497
40496 40497
40496 41341
40498 40499
40498 40499
40499 40500
40499 40501
40499 40500
40499 40501
40501 40503
40501 40502
40501 40503
40501 40502
40503 40504
40503 40504
40505 40506
40505 41350
40505 41350
40505 40506
40506 40507
40506 41347
40506 40507
40506 41347
40507 40508
40507 41349
40507 40508
40507 41349
40508 40509
40508 40509
40508 41344
40508 41344
40509 41342
40509 41342
40512 40513
40512 40534
40512 40513
40512 40534
40513 40532
40513 40536
40513 40532
40513 40536
40514 40516
40514 40516
40515 40516
40515 40516
40517 42715
40517 40518
40517 40518
40517 42715
40521 40522
40521 40522
40521 40528
40521 40542
40521 41368
40521 40528
40521 40542
40521 41368
40522 40541
40522 40542
40522 40542
40522 40541
40523 40524
40523 40555
40523 40524
40523 40555
40524 40525
40524 40526
40524 40554
40524 40525
40524 40526
40524 40554
40526 40528
40526 40527
40526 40528
40526 40538
40526 40527
40526 40538
40528 40529
40528 40537
40528 40529
40528 40537
40530 40531
40530 40531
40530 40547
40530 40547
40531 41106
40531 41106
40532 40533
40532 40533
40532 40543
40532 40549
40532 40549
40532 40543
40533 40549
40533 40549
40534 40535
40534 40535
40535 40536
40535 40536
40536 40543
40536 40543
40537 40539
40537 40539
40538 40557
40538 40539
40538 40552
40538 40557
40538 40539
40538 40552
40539 40815
40539 40815
40540 40549
40540 40815
40540 40549
40540 40815
40542 40543
40542 40549
40542 40549
40542 40543
40544 40550
40544 40545
40544 40550
40544 40545
40545 40547
40545 40546
40545 40547
40545 40546
40547 40548
40547 40548
40550 40551
40550 40551
40552 40554
40552 40553
40552 40554
40552 40553
40556 40557
40556 40558
40556 40557
40556 40558
40557 40816
40557 40816
40560 41389
40560 41389
40561 41389
40561 41389
40563 40564
40563 40564
40563 40569
40563 41391
40563 40569
40563 41391
40568 40569
40568 42789
40568 40569
40568 42789
40569 41392
40569 41392
40570 40571
40570 40996
40570 40571
40570 40996
40571 40572
40571 40572
40571 40996
40571 40996
40573 40574
40573 40584
40573 40574
40573 40584
40574 40575
40574 40585
40574 40575
40574 40585
40575 40586
40575 40586
40576 40952
40576 40952
40577 40578
40577 40578
40582 40583
40582 40945
40582 40583
40582 40945
40583 40584
40583 40944
40583 40584
40583 40944
40584 40706
40584 40706
40585 40587
40585 40587
40586 40587
40586 40587
40586 41398
40586 41398
40593 42867
40593 42870
40593 42870
40593 42867
40616 40617
40616 40617
40616 40640
40616 40640
40617 40640
40617 40640
40640 40641
40640 40642
40640 40641
40640 40642
40642 40645
40642 40645
40642 42462
40642 42462
40645 40646
40645 40646
40647 42461
40647 40648
40647 40648
40647 42461
40662 40663
40662 41142
40662 40663
40662 41142
40663 41140
40663 41140
40681 40682
40681 40682
40682 40683
40682 40683
40683 40684
40683 40684
40684 40685
40684 40686
40684 40685
40684 40686
40685 40687
40685 40687
40686 40689
40686 40689
40687 40688
40687 40688
40690 139771
40690 139771
40691 40692
40691 40692
40694 40987
40694 40987
40695 40696
40695 40697
40695 40696
40695 40697
40696 40975
40696 40975
40697 40974
40697 40974
40700 40702
40700 40703
40700 40702
40700 40703
40701 40702
40701 40702
40702 42300
40702 42300
40704 40705
40704 41727
40704 40705
40704 41727
40705 41726
40705 41726
40709 42235
40709 42235
40712 40713
40712 40722
40712 40713
40712 40722
40713 40720
40713 40714
40713 40720
40713 40714
40714 40720
40714 40715
40714 40720
40714 40715
40715 40717
40715 40716
40715 40717
40715 40716
40717 40718
40717 40718
40719 40964
40719 40964
40720 40721
40720 40721
40727 40728
40727 40728
40728 40729
40728 40729
40728 40744
40728 40744
40729 40744
40729 40744
40732 42113
40732 40734
40732 42113
40732 40734
40733 42188
40733 42188
40735 41645
40735 41645
40736 40737
40736 40738
40736 40737
40736 40738
40738 40739
40738 42104
40738 40739
40738 42104
40739 40740
40739 40740
40739 42103
40739 42103
40740 40741
40740 40741
40744 42112
40744 42112
40746 40747
40746 40747
40748 40749
40748 42208
40748 40749
40748 42208
40749 42201
40749 42201
40751 40760
40751 40760
40752 40753
40752 40753
40753 40754
40753 40760
40753 40760
40753 40754
40754 40760
40754 40755
40754 40760
40754 40755
40755 40756
40755 40759
40755 40756
40755 40759
40756 40757
40756 40758
40756 40757
40756 40758
40760 42146
40760 42146
40761 40938
40761 40938
40762 40765
40762 40765
40764 40765
40764 40765
40765 40776
40765 40776
40766 40938
40766 40938
40772 40773
40772 40773
40773 40774
40773 40775
40773 40774
40773 40775
40779 40780
40779 41575
40779 41575
40779 40780
40780 41575
40780 40781
40780 41575
40780 40781
40781 40782
40781 40782
40781 41669
40781 41669
40782 40783
40782 40783
40784 40785
40784 40786
40784 40785
40784 40786
40786 40787
40786 40788
40786 40787
40786 40788
40788 40789
40788 40790
40788 40789
40788 40790
40791 40793
40791 40792
40791 40793
40791 40792
40793 40794
40793 40794
40793 40796
40793 40796
40794 40795
40794 40795
40796 40798
40796 40797
40796 40798
40796 40797
40798 40799
40798 40799
40799 40800
40799 40801
40799 40800
40799 40801
40815 41368
40815 41368
40816 41367
40816 40817
40816 41367
40816 40817
40817 40818
40817 40818
40819 40820
40819 40820
40820 41823
40820 41823
40821 41029
40821 41029
40822 40823
40822 40823
40823 40824
40823 40824
40824 40825
40824 40825
40825 40826
40825 40826
40826 41767
40826 41767
40827 40830
40827 40828
40827 40830
40827 41076
40827 40828
40827 41076
40828 40829
40828 40829
40828 40843
40828 40843
40829 40841
40829 40841
40830 41075
40830 41075
40831 40835
40831 40835
40832 40833
40832 41052
40832 41052
40832 40833
40833 41052
40833 40834
40833 41052
40833 40834
40834 40841
40834 40835
40834 40835
40834 40841
40835 40837
40835 40837
40835 40840
40835 40840
40837 40838
40837 40838
40839 40843
40839 42351
40839 40843
40839 42351
40841 40842
40841 40842
40843 41353
40843 41353
40844 40845
40844 40845
40845 41614
40845 41614
40846 41662
40846 41662
40850 42729
40850 42729
40851 40852
40851 42258
40851 40852
40851 42258
40857 40858
40857 40858
40865 40866
40865 40866
40866 40867
40866 40868
40866 40867
40866 40868
40868 43118
40868 40869
40868 43118
40868 40869
40869 40870
40869 43115
40869 40870
40869 43115
40870 40871
40870 40872
40870 40871
40870 40872
40872 40873
40872 40873
40873 40875
40873 40874
40873 40875
40873 40874
40875 43113
40875 43113
40896 40897
40896 40897
40897 40898
40897 40898
40898 40899
40898 41933
40898 40899
40898 41933
40899 40900
40899 40900
40899 41933
40899 41933
40900 40901
40900 40901
40932 40933
40932 40933
40933 40934
40933 40934
40934 41653
40934 40935
40934 41653
40934 40935
40935 40936
40935 41652
40935 40936
40935 41652
40936 40937
40936 40937
40937 41651
40937 41651
40944 41697
40944 40954
40944 41697
40944 40954
40945 40946
40945 40947
40945 40946
40945 40947
40947 40948
40947 40949
40947 40948
40947 40949
40949 40950
40949 40951
40949 41742
40949 40950
40949 40951
40949 41742
40951 40952
40951 40952
40951 41741
40951 41741
40953 40954
40953 41629
40953 40954
40953 41629
40954 41628
40954 41628
40956 40957
40956 40957
40958 40959
40958 40959
40959 40961
40959 40961
40960 40961
40960 40961
40961 41726
40961 41726
40962 40963
40962 40963
40964 42176
40964 42176
40969 40970
40969 40971
40969 40970
40969 40971
40979 40980
40979 40981
40979 40980
40979 40981
40981 40982
40981 40983
40981 40982
40981 40983
40985 40986
40985 40987
40985 40987
40985 40986
40988 40992
40988 40989
40988 40992
40988 40989
40989 40990
40989 40991
40989 40990
40989 40991
40992 40993
40992 40993
40993 40997
40993 40994
40993 40997
40993 40994
40994 40995
40994 41937
40994 40995
40994 41870
40994 41937
40994 41870
40995 41938
40995 41998
40995 41938
40995 41998
40996 41393
40996 41393
41028 41029
41028 43082
41028 41029
41028 43082
41044 41045
41044 43544
41044 41045
41044 43544
41045 41046
41045 43550
41045 41046
41045 43550
41046 43551
41046 41047
41046 43551
41046 41047
41047 41048
41047 41048
41048 41049
41048 41049
41048 43555
41048 43555
41049 43553
41049 43553
41050 41051
41050 41051
41062 41063
41062 41063
41064 41065
41064 42097
41064 42097
41064 41065
41065 41067
41065 41066
41065 41067
41065 41066
41067 42097
41067 42097
41068 41069
41068 41069
41073 41074
41073 41074
41073 41103
41073 41103
41074 41102
41074 41580
41074 41102
41074 41580
41075 41348
41075 41347
41075 41076
41075 41076
41075 41347
41075 41348
41076 41351
41076 41353
41076 41353
41076 41351
41088 41089
41088 41285
41088 41089
41088 41285
41092 41095
41092 41095
41094 41095
41094 41095
41095 41096
41095 41096
41101 41102
41101 41102
41102 41580
41102 41580
41140 41141
41140 41141
41141 41144
41141 41144
41142 41143
41142 41820
41142 41143
41142 41820
41143 41144
41143 41144
41144 41818
41144 41818
41164 41165
41164 41177
41164 41165
41164 41177
41165 41166
41165 41167
41165 41166
41165 41167
41167 41168
41167 41169
41167 41168
41167 41169
41169 41170
41169 41176
41169 41170
41169 41176
41170 41171
41170 41172
41170 41171
41170 41172
34236 39781
34236 39781
41229 41230
41229 41230
41229 41231
41229 41238
41229 41231
41229 41238
41230 41233
41230 41233
41231 41232
41231 41238
41231 41238
41231 41232
41232 41233
41232 41233
41232 41239
41232 41239
41233 41240
41233 41240
41238 41239
41238 41239
41239 41240
41239 41240
41284 42202
41284 42202
41296 41297
41296 41297
41298 41299
41298 41300
41298 41299
41298 41300
41300 41301
41300 41302
41300 41301
41300 41302
41306 41307
41306 41307
41310 41311
41310 41314
41310 41311
41310 41314
41311 41312
41311 41313
41311 41312
41311 41313
41314 41316
41314 41315
41314 41316
41314 41315
41316 41415
41316 41415
41318 41319
41318 41319
41323 41324
41323 41324
41325 41326
41325 41326
41340 41341
41340 41341
41344 41345
41344 41346
41344 41345
41344 41346
41348 41349
41348 41349
41350 41351
41350 41351
41352 41353
41352 41353
41353 42347
41353 42347
41354 41355
41354 41355
41355 41356
41355 41356
41356 41357
41356 41357
41356 42349
41356 42349
41358 41359
41358 43509
41358 41359
41358 43509
41361 41362
41361 41363
41361 41547
41361 41362
41361 41363
41361 41547
41362 41363
41362 41553
41362 41363
41362 41553
41363 41364
41363 41364
41381 41382
41381 41383
41381 41382
41381 41383
41383 41385
41383 41384
41383 41385
41383 41384
41385 41386
41385 41387
41385 41386
41385 41387
41387 41388
41387 41388
41391 41392
41391 41392
41392 41393
41392 41393
41395 41396
41395 41396
41396 41397
41396 41397
41396 41480
41396 41480
41397 41478
41397 41478
41408 41409
41408 41409
41409 41410
41409 41410
41410 42513
41410 42513
41411 41412
41411 42537
41411 41412
41411 42537
41412 41413
41412 41424
41412 41413
41412 41424
41413 41414
41413 41414
41413 41429
41413 41429
41414 41428
41414 41428
41424 41430
41424 41425
41424 41430
41424 41425
41425 41426
41425 41427
41425 41426
41425 41427
41427 41428
41427 41428
41427 41438
41427 41438
41428 41437
41428 41437
41439 41440
41439 41440
41440 41442
41440 41443
41440 42795
41440 41442
41440 41443
41440 42795
41441 41442
41441 41442
41442 42796
41442 1603254
41442 42796
41442 1603254
41445 41446
41445 41446
41446 41447
41446 41447
41448 42350
41448 42350
41458 41459
41458 41459
41461 41462
41461 41480
41461 41462
41461 41464
41461 41480
41461 41464
41463 41481
41463 41464
41463 41481
41463 41464
41465 41466
41465 41466
41467 41469
41467 41468
41467 41469
41467 41468
41470 42303
41470 42303
41471 41472
41471 42301
41471 41472
41471 42301
41472 41473
41472 41475
41472 41473
41472 41475
41473 41474
41473 41475
41473 41475
41473 41474
41475 41476
41475 41476
41476 41477
41476 41477
41478 41479
41478 41479
41480 41482
41480 41482
41482 42236
41482 42236
41547 41548
41547 41601
41547 41548
41547 41601
41548 41549
41548 41600
41548 41549
41548 41600
41549 41550
41549 41551
41549 41550
41549 41551
41551 41552
41551 41599
41551 41552
41551 41599
41552 41553
41552 41553
41552 41609
41552 41609
41553 41554
41553 41554
41555 41556
41555 41564
41555 41556
41555 41564
41556 41557
41556 41591
41556 41557
41556 41591
41557 41558
41557 41590
41557 41558
41557 41590
41558 41559
41558 41589
41558 41559
41558 41589
41559 41560
41559 41588
41559 41560
41559 41588
41560 41561
41560 41587
41560 41561
41560 41587
41561 41562
41561 41586
41561 41562
41561 41586
41562 41563
41562 41585
41562 41563
41562 41585
41563 41564
41563 41564
41563 41584
41563 41584
41564 41583
41564 41583
41568 41569
41568 41570
41568 41569
41568 41570
41571 41574
41571 41572
41571 41574
41571 41572
41572 41573
41572 41573
41573 41574
41573 41574
41575 41576
41575 41576
41576 41577
41576 41578
41576 41577
41576 41578
41578 41685
41578 41579
41578 41685
41578 41579
41579 41685
41579 41580
41579 41580
41579 41685
41580 41581
41580 41581
41596 41597
41596 41597
41596 43186
41596 43186
41601 41602
41601 41603
41601 41602
41601 41603
41603 41604
41603 41605
41603 41604
41603 41605
41605 42351
41605 41606
41605 42351
41605 41606
41606 42350
41606 41607
41606 42350
41606 41607
41607 41609
41607 41608
41607 41609
41607 41608
41609 41610
41609 41610
41611 41612
41611 43168
41611 41612
41611 43168
41613 42211
41613 42211
41615 41616
41615 41627
41615 41616
41615 41627
41616 41617
41616 41626
41616 41617
41616 41626
41617 41618
41617 41619
41617 41618
41617 41619
41619 41620
41619 41625
41619 41620
41619 41625
41620 41621
41620 41624
41620 41621
41620 41624
41621 41622
41621 41623
41621 41622
41621 41623
41629 41630
41629 41630
41629 41701
41629 41701
41630 41631
41630 41631
41631 41632
41631 41632
41631 43444
41631 43444
41632 43443
41632 43443
41633 41634
41633 41635
41633 41634
41633 41635
41635 41636
41635 41636
41635 43440
41635 43440
41636 41637
41636 41637
41646 41649
41646 41647
41646 41649
41646 41989
41646 41647
41646 41989
41647 41913
41647 41650
41647 41648
41647 41648
41647 41650
41647 41913
41648 41713
41648 41713
41649 41650
41649 41976
41649 41976
41649 41650
41650 41913
41650 41913
41659 1494590
41659 1494590
41663 41664
41663 41674
41663 41674
41663 41664
41670 41671
41670 41684
41670 41685
41670 41685
41670 41671
41670 41684
41671 41672
41671 41684
41671 41684
41671 41672
41673 41674
41673 41674
41679 41680
41679 41684
41679 41684
41679 41680
41680 41684
41680 41681
41680 41684
41680 41681
41681 41682
41681 41683
41681 41682
41681 41683
34336 34559
34336 34559
41686 41687
41686 41688
41686 41688
41686 41687
41688 41689
41688 41689
41689 42118
41689 42118
41690 41691
41690 41691
41691 41698
41691 41698
41695 42125
41695 42126
41695 42125
41695 42126
41697 41731
41697 41731
41709 41710
41709 41710
41709 42878
41709 42878
41710 42878
41710 42878
41712 41713
41712 41713
41714 41715
41714 41715
41726 41727
41726 41727
41731 42165
41731 41732
41731 42165
41731 41732
41732 41733
41732 41734
41732 41733
41732 41734
41734 41735
41734 41738
41734 41735
41734 41738
41735 41736
41735 41737
41735 41736
41735 41737
41738 41739
41738 41739
41738 42167
41738 42167
41739 41740
41739 41740
34347 34348
34347 34348
41745 41746
41745 41746
41745 41747
41745 41750
41745 41747
41745 41750
41746 41748
41746 41748
41747 41748
41747 41748
41747 41751
41747 41751
41749 41750
41749 41750
41750 41751
41750 43560
41750 41751
41750 43560
41752 41753
41752 41754
41752 41753
41752 41754
41755 41756
41755 41757
41755 41756
41755 41757
41765 41766
41765 41766
41766 41771
41766 41771
41773 41774
41773 41775
41773 41774
41773 41775
41777 41778
41777 41778
41777 41780
41777 41780
41779 41780
41779 41780
41780 41781
41780 41787
41780 41781
41780 41787
34356 34357
34356 34357
34357 34358
34357 34358
41789 41790
41789 41790
41795 41796
41795 41796
41799 1600095
41799 1600095
41815 41816
41815 41817
41815 41816
41815 41817
41817 41818
41817 41818
41817 41861
41817 41861
41818 41860
41818 41860
41823 41824
41823 41824
41825 41826
41825 41826
41825 41828
41825 41828
41826 41892
41826 41892
41827 41828
41827 41902
41827 41828
41827 41902
41828 41901
41828 41901
41850 41868
41850 41851
41850 41868
41850 41851
41851 41852
41851 43241
41851 41852
41851 43241
41852 41853
41852 41853
41852 43244
41852 43244
41853 41854
41853 41854
41854 41855
41854 41855
41855 41856
41855 41857
41855 41856
41855 41857
41867 41868
41867 41868
41867 43245
41867 43245
41869 42023
41869 41870
41869 42023
41869 41870
41870 42022
41870 42022
41875 41876
41875 41876
41877 41906
41877 41906
41880 41881
41880 41882
41880 41881
41880 41882
41882 41883
41882 41884
41882 41883
41882 41884
41885 41886
41885 41887
41885 41886
41885 41887
41892 41893
41892 41900
41892 41893
41892 41900
41893 41894
41893 41895
41893 41894
41893 41895
41895 41896
41895 41897
41895 41896
41895 41897
41897 41898
41897 41899
41897 41898
41897 41899
41913 41914
41913 41914
41914 41915
41914 41915
41916 41917
41916 41917
41919 41920
41919 42704
41919 41920
41919 42704
41920 41921
41920 41921
41921 41922
41921 41922
41931 41932
41931 41932
41933 41934
41933 41934
41934 41935
41934 41935
41934 41940
41934 41940
41935 41940
41935 41940
41937 41938
41937 42022
41937 42022
41937 41938
41938 41939
41938 41939
41938 41998
41938 41998
41939 41998
41939 41998
41940 41941
41940 41942
41940 41941
41940 41942
41942 41943
41942 41944
41942 42089
41942 41943
41942 41944
41942 42089
41944 41945
41944 41945
41944 42090
41944 42091
41944 42090
41944 42091
41945 42092
41945 42092
41946 43090
41946 42262
41946 41949
41946 41947
41946 41949
41946 42262
41946 43090
41946 41947
41947 41948
41947 41950
41947 42261
41947 41948
41947 41950
41947 42261
41948 41949
41948 41949
41948 41951
41948 41951
41950 41951
41950 41977
41950 42260
41950 41951
41950 41977
41950 42260
41951 41978
41951 41978
41952 41953
41952 41954
41952 41973
41952 41953
41952 41954
41952 41973
41954 41955
41954 43073
41954 41955
41954 43073
41955 41956
41955 43071
41955 41956
41955 43071
41956 41957
41956 43085
41956 41957
41956 43085
41957 41958
41957 41959
41957 41958
41957 41959
41959 41960
41959 41961
41959 43084
41959 41960
41959 41961
41959 43084
41961 41962
41961 41963
41961 41962
41961 41963
41963 41964
41963 43083
41963 41964
41963 43083
41964 41965
41964 41966
41964 41965
41964 41966
41966 41967
41966 41968
41966 41967
41966 41968
41968 41969
41968 43074
41968 41969
41968 43074
41969 41970
41969 41971
41969 41970
41969 41971
41971 41973
41971 41972
41971 41973
41971 41972
41973 41974
41973 41974
41976 41982
41976 41982
41977 41978
41977 43089
41977 41978
41977 43089
41979 41980
41979 41981
41979 41980
41979 41981
41981 41990
41981 41990
41983 41984
41983 41984
41995 41996
41995 41996
42024 42025
42024 42026
42024 42025
42024 42026
42027 42028
42027 42029
42027 43170
42027 42028
42027 42029
42027 43170
42028 42033
42028 43175
42028 42033
42028 43175
42029 42030
42029 42031
42029 42030
42029 42031
42031 42032
42031 42032
42031 43169
42031 43169
42032 42033
42032 42033
42033 43182
42033 43182
42034 42035
42034 42036
42034 42041
42034 42036
42034 42035
42034 42041
42035 42040
42035 42040
42035 43214
42035 43214
42037 43194
42037 43194
42040 43214
42040 43214
42042 42043
42042 42044
42042 42043
42042 42044
42043 42045
42043 42045
42044 42282
42044 42282
42044 42283
42044 42283
42045 42051
42045 42051
42046 42048
42046 42047
42046 42047
42046 42048
42046 42056
42046 42056
42047 42051
42047 42051
42048 42049
42048 42049
42052 42053
42052 42054
42052 42067
42052 42054
42052 42053
42052 42067
42059 42060
42059 42061
42059 42766
42059 42060
42059 42061
42059 42766
42060 42063
42060 42767
42060 42063
42060 42767
42061 42739
42061 42062
42061 42063
42061 42739
42061 42063
42061 42062
42063 42064
42063 42768
42063 42064
42063 42768
42066 42067
42066 42074
42066 42074
42066 42067
42067 42069
42067 42075
42067 42069
42067 42075
42068 42589
42068 42073
42068 42589
42068 42073
42069 42070
42069 42073
42069 42073
42069 42070
42070 42071
42070 42072
42070 42071
42070 42072
42073 42074
42073 42074
42074 42596
42074 42596
42077 42078
42077 42078
42077 42081
42077 42081
42079 42597
42079 42597
42081 42082
42081 42082
42081 42594
42081 42594
42082 42594
42082 42595
42082 42594
42082 42595
42089 42090
42089 43516
42089 42090
42089 43516
42090 42336
42090 42336
42091 42092
42091 42311
42091 42092
42091 42311
42092 42329
42092 42329
42093 42727
42093 42743
42093 42727
42093 42743
42094 42329
42094 42329
42099 42102
42099 42111
42099 42102
42099 42111
42100 42101
42100 42102
42100 42102
42100 42101
42120 42121
42120 42121
42121 42124
42121 42124
42125 42126
42125 43184
42125 42126
42125 43184
42126 43185
42126 43185
42127 42128
42127 42130
42127 43215
42127 42128
42127 42130
42127 43215
42128 42129
42128 42129
42129 43202
42129 43202
42130 42131
42130 42131
42131 42132
42131 42132
42136 42137
42136 42137
42137 42280
42137 42280
42145 42146
42145 42189
42145 42146
42145 42189
42146 42189
42146 42189
42148 42149
42148 42149
42148 42150
42148 42150
42149 42154
42149 42154
42150 42151
42150 42151
42151 42152
42151 42306
42151 42152
42151 42306
42152 42154
42152 42153
42152 42154
42152 42153
42154 42155
42154 42156
42154 42155
42154 42156
42155 42158
42155 42158
42156 42157
42156 42157
42157 42305
42157 42158
42157 42158
42157 42305
42158 42304
42158 42304
42159 42160
42159 42164
42159 42183
42159 42160
42159 42164
42159 42183
42160 42161
42160 42161
42161 42162
42161 42162
42162 42163
42162 42163
42163 42305
42163 42164
42163 42164
42163 42305
42164 42180
42164 42180
42165 42184
42165 42184
42170 42171
42170 42172
42170 42171
42170 42172
42172 42177
42172 42173
42172 42173
42172 42177
42173 42176
42173 42176
42174 42175
42174 42176
42174 42176
42174 42175
42177 42178
42177 42178
42180 42181
42180 42310
42180 42181
42180 42310
42181 42182
42181 42182
42181 42309
42181 42309
42182 42183
42182 42307
42182 42183
42182 42307
42184 42185
42184 42187
42184 42185
42184 42187
42185 42186
42185 42186
42189 42191
42189 42984
42189 42191
42189 42984
42191 42192
42191 42193
42191 42978
42191 42192
42191 42193
42191 42978
42193 42194
42193 42195
42193 42983
42193 42194
42193 42195
42193 42983
42195 42200
42195 42196
42195 42199
42195 42200
42195 42196
42195 42199
42196 42197
42196 42197
42196 42198
42196 42198
42202 42203
42202 42203
42203 42204
42203 42205
42203 42204
42203 42205
34440 34441
34440 34444
34440 34441
34440 34444
34440 39889
34440 39889
42205 42206
42205 42206
42206 42207
42206 42207
42208 42209
42208 42210
42208 42209
42208 42210
34441 34442
34441 34442
42211 42212
42211 42212
42215 42216
42215 42220
42215 42216
42215 42220
42216 42217
42216 42223
42216 42217
42216 42223
42217 42218
42217 42226
42217 42218
42217 42226
42218 42220
42218 42219
42218 42220
42218 42219
42220 42224
42220 42224
42221 42222
42221 42222
42222 42223
42222 42223
42222 42228
42222 42229
42222 42228
42222 42229
42223 42227
42223 42227
42224 42225
42224 42225
42230 42231
42230 42232
42230 42231
42230 42232
42232 42234
42232 42233
42232 42234
42232 42233
42241 42243
42241 42242
42241 42242
42241 42243
42241 43543
42241 43543
42242 42251
42242 42251
42243 43542
42243 43542
42244 42245
42244 42251
42244 42245
42244 42246
42244 42247
42244 42251
42244 42246
42244 42247
42247 43543
42247 42248
42247 43543
42247 42248
42248 42249
42248 43542
42248 42249
42248 43542
42249 43534
42249 43534
42260 42261
42260 42261
42260 43089
42260 43089
42261 43090
42261 43090
42262 43071
42262 43071
42263 42264
42263 42740
42263 42264
42263 42740
42264 42280
42264 42280
42264 42286
42264 42286
42267 42268
42267 42271
42267 42268
42267 42271
42268 42269
42268 42270
42268 42269
42268 42270
42272 42273
42272 42276
42272 42273
42272 42276
42273 42274
42273 42275
42273 42274
42273 42275
42276 42278
42276 42277
42276 42278
42276 42277
42278 42279
42278 42279
42280 42282
42280 42282
42283 42284
42283 42765
42283 42284
42283 42765
42284 42285
42284 42285
42284 42763
42284 42763
42285 42286
42285 42763
42285 42286
42285 42763
42287 42288
42287 42289
42287 42288
42287 42289
42290 42291
42290 42291
42290 42741
42290 42742
42290 42741
42290 42742
42291 42292
42291 42292
42292 42293
42292 42299
42292 42293
42292 42299
42293 42294
42293 42298
42293 42294
42293 42298
42294 42295
42294 42295
42294 42297
42294 42297
42295 42296
42295 42296
42307 42308
42307 42308
42311 42312
42311 42312
42312 42313
42312 42337
42312 42313
42312 42337
42313 42314
42313 42315
42313 42314
42313 42315
42321 42323
42321 42323
42323 42325
42323 42324
42323 42325
42323 42324
42325 42326
42325 42326
42336 42337
42336 42337
42337 43516
42337 43516
42339 42848
42339 42848
42347 43508
42347 42348
42347 43508
42347 42348
42348 42349
42348 43509
42348 42349
42348 43509
42349 43510
42349 43510
42350 42351
42350 42351
42352 42876
42352 42353
42352 42355
42352 42876
42352 42881
42352 42353
42352 42355
42352 42881
42353 42354
42353 42880
42353 42354
42353 42880
42354 42355
42354 42355
42354 42880
42354 42880
42355 42879
42355 42879
42356 42868
42356 42868
42357 42358
42357 42360
42357 42362
42357 42358
42357 42360
42357 42362
42358 42359
42358 42361
42358 42359
42358 42361
42359 42360
42359 42360
42359 42364
42359 42366
42359 42364
42359 42366
42360 42866
42360 42866
42361 42363
42361 42363
42361 42364
42361 42364
42362 42865
42362 42363
42362 42363
42362 42865
42364 42868
42364 42868
42365 42366
42365 42366
42365 42367
42365 43038
42365 42367
42365 43038
42366 42368
42366 42368
42367 42368
42367 42368
42368 43041
42368 43041
42464 42465
42464 42466
42464 42465
42464 42466
42466 42467
42466 42468
42466 42467
42466 42468
42474 42475
42474 42475
42487 42488
42487 42489
42487 42488
42487 42489
42489 42490
42489 42491
42489 42490
42489 42491
42492 42493
42492 42494
42492 42493
42492 42494
42494 42495
42494 42495
42496 42497
42496 42556
42496 42497
42496 42556
42497 42498
42497 42498
42497 42555
42497 42555
42498 42554
42498 42554
42501 42502
42501 42511
42501 42502
42501 42511
42502 42503
42502 42504
42502 42503
42502 42504
42504 42505
42504 42506
42504 42505
42504 42506
42506 42507
42506 42510
42506 42507
42506 42510
42507 42508
42507 42509
42507 42508
42507 42509
42515 42516
42515 42517
42515 42516
42515 42517
42517 42519
42517 42518
42517 42519
42517 42518
42519 42520
42519 42520
42520 42521
42520 42521
42520 43423
42520 43424
42520 43423
42520 43424
42521 42522
42521 42522
42531 42532
42531 1603390
42531 42532
42531 1603390
42532 42533
42532 42533
42532 1603387
42532 1603387
42533 1603387
42533 1603387
42538 42539
42538 42541
42538 42539
42538 42541
42539 42540
42539 42540
42541 42542
42541 42549
42541 42542
42541 42549
42542 42543
42542 42548
42542 42543
42542 42548
42543 42544
42543 42547
42543 42544
42543 42547
42544 42545
42544 42546
42544 42545
42544 42546
42551 42552
42551 42553
42551 42552
42551 42553
42559 42560
42559 42561
42559 42560
42559 42561
42559 42562
42559 42562
42560 42568
42560 42568
42561 42567
42561 42567
42563 42564
42563 42564
42569 42570
42569 42570
42569 42572
42569 42572
42570 42571
42570 42571
42573 42574
42573 42574
42574 42575
42574 42575
42575 42576
42575 42577
42575 42576
42575 42577
42582 42583
42582 42583
42582 42586
42582 42586
42583 42584
42583 42584
42586 42587
42586 42587
42589 42590
42589 42592
42589 42590
42589 42592
42590 42591
42590 42591
42592 42596
42592 42594
42592 42593
42592 42594
42592 42596
42592 42593
42594 42596
42594 42596
42598 42600
42598 42600
42607 42608
42607 42608
42689 42693
42689 42693
42693 42697
42693 42697
42694 43556
42694 43556
42697 42698
42697 42698
42698 42702
42698 42702
42702 42704
42702 42704
42704 42705
42704 42705
42717 42718
42717 42739
42717 42739
42717 42718
42718 42719
42718 42720
42718 42719
42718 42720
42720 42721
42720 42722
42720 42721
42720 42722
42722 42723
42722 42724
42722 42723
42722 42724
42724 42726
42724 42725
42724 42726
42724 42725
42727 42728
42727 42728
42729 42730
42729 42762
42729 42730
42729 42762
42730 42731
42730 42732
42730 42731
42730 42732
42732 42733
42732 42761
42732 42733
42732 42761
42733 42734
42733 42760
42733 42734
42733 42760
42734 42765
42734 42735
42734 42765
42734 42735
42735 42737
42735 42736
42735 42737
42735 42775
42735 42736
42735 42775
42737 42738
42737 42774
42737 42738
42737 42774
42741 42744
42741 42744
42742 42743
42742 42743
42742 42745
42742 42745
42743 42749
42743 42749
42745 42746
42745 42747
42745 42746
42745 42747
42747 42749
42747 42748
42747 42749
42747 42748
42749 42750
42749 42751
42749 42750
42749 42751
42751 42752
42751 42759
42751 42752
42751 42759
42752 42753
42752 42758
42752 42753
42752 42758
42753 42754
42753 42755
42753 42754
42753 42755
42755 42756
42755 42757
42755 42756
42755 42757
42763 42765
42763 42764
42763 42765
42763 42764
42769 42770
42769 42771
42769 42770
42769 42771
42771 42772
42771 42773
42771 42772
42771 42773
42791 42792
42791 42792
42795 42806
42795 42806
42796 42797
42796 42797
42797 42798
42797 42798
42797 1604171
42797 1604171
42798 1607733
42798 1607733
42800 42801
42800 42802
42800 42801
42800 42802
42803 42804
42803 42804
42806 42828
42806 43427
42806 43427
42806 42828
42811 42812
42811 42813
42811 42812
42811 42813
42815 42816
42815 42817
42815 42816
42815 42817
42818 42819
42818 42819
42819 42820
42819 42821
42819 42820
42819 42821
42828 42829
42828 42830
42828 42829
42828 42830
42830 42831
42830 42832
42830 42831
42830 42832
42832 42833
42832 42833
42832 43428
42832 43428
42833 43428
42833 43429
42833 43428
42833 43429
42844 42845
42844 42846
42844 42845
42844 42846
42848 42849
42848 42849
42866 43041
42866 43041
42868 42869
42868 42869
42870 42876
42870 42876
42871 42873
42871 42874
42871 42873
42871 42874
42872 42873
42872 42873
42872 42874
42872 42874
42879 42881
42879 42881
42894 42895
42894 42901
42894 42895
42894 42901
42895 42896
42895 42906
42895 42896
42895 42906
42896 42897
42896 42905
42896 42897
42896 42905
42897 42899
42897 42898
42897 42899
42897 42898
42899 42904
42899 42905
42899 42905
42899 42904
42900 42901
42900 42910
42900 43111
42900 42901
42900 42910
42900 43111
42901 42906
42901 42906
42902 42904
42902 42903
42902 42904
42902 43108
42902 42903
42902 43108
42903 42905
42903 42904
42903 42904
42903 42905
42906 42911
42906 42911
42907 42908
42907 43112
42907 42908
42907 43112
42908 42909
42908 42909
42910 42911
42910 43110
42910 42911
42910 43110
42911 43109
42911 43109
42912 42918
42912 42913
42912 42913
42912 42918
42912 42919
42912 42919
42913 42916
42913 42916
42914 42915
42914 42916
42914 42916
42914 42915
42915 42929
42915 42929
42916 42925
42916 42925
42917 42918
42917 42918
42917 43187
42917 43187
42919 42920
42919 42920
42919 42926
42919 42926
42920 42921
42920 42921
42921 42922
42921 42922
42922 42923
42922 43564
42922 42923
42922 43564
42923 42924
42923 42930
42923 42924
42923 42930
42924 42925
42924 42925
42924 42927
42924 42927
42925 42929
42925 42929
42927 42928
42927 43562
42927 42928
42927 43562
42928 42929
42928 42929
42930 42931
42930 42931
42931 43563
42931 43563
42932 42934
42932 42933
42932 42934
42932 42939
42932 42933
42932 42939
42934 42935
42934 42942
42934 42935
42934 42942
42936 42937
42936 42937
42936 42951
42936 42951
42937 42938
42937 42938
42938 42939
42938 42939
42938 42943
42938 42945
42938 42943
42938 42945
42939 42940
42939 42940
42941 42942
42941 42942
42942 42943
42942 42943
42943 42944
42943 42944
42945 42946
42945 42947
42945 42946
42945 42947
42947 42948
42947 42948
42949 42950
42949 42951
42949 42950
42949 42951
42950 42957
42950 42957
42951 42956
42951 42956
42952 42953
42952 42953
42953 42954
42953 42957
42953 42954
42953 42957
42957 42970
42957 42970
42958 42959
42958 42959
42958 42960
42958 42969
42958 42960
42958 42969
42959 42976
42959 42976
42960 42961
42960 42962
42960 42961
42960 42962
42962 42963
42962 42964
42962 42965
42962 42963
42962 42964
42962 42965
42965 42966
42965 42966
42965 42967
42965 42974
42965 42967
42965 42974
42967 42969
42967 42968
42967 42969
42967 42968
42969 42970
42969 42970
42970 42971
42970 42971
42971 42973
42971 42972
42971 42973
42971 42972
42972 42973
42972 42973
42972 42975
42972 42975
42977 42978
42977 42981
42977 42978
42977 42981
42978 42979
42978 42979
42979 42985
42979 42985
42981 42982
42981 42982
42991 42992
42991 43107
42991 42992
42991 43107
42992 42993
42992 42994
42992 42993
42992 42994
42994 42995
42994 42995
42994 43106
42994 43106
42995 42996
42995 43105
42995 42996
42995 43105
43038 43039
43038 43040
43038 43039
43038 43040
43039 43040
43039 43040
43041 43042
43041 43043
43041 43042
43041 43043
43044 43045
43044 43046
43044 43060
43044 43045
43044 43046
43044 43060
43045 43057
43045 43046
43045 43057
43045 43046
43046 43058
43046 43058
43047 43048
43047 43048
43047 43051
43047 43051
43048 43052
43048 43052
43049 43050
43049 43050
43050 43051
43050 43051
43052 43053
43052 43053
43053 43054
43053 43054
43055 43056
43055 43058
43055 43056
43055 43058
43055 43059
43055 43059
43056 43060
43056 43060
43058 43060
43058 43060
43061 43062
43061 43062
43062 43068
43062 43068
43063 43064
43063 43065
43063 43064
43063 43065
43066 43067
43066 43068
43066 43068
43066 43067
43067 43068
43067 43068
43067 43070
43067 43070
43071 43072
43071 43086
43071 43072
43071 43086
43074 43075
43074 43076
43074 43075
43074 43076
43076 43077
43076 43078
43076 43077
43076 43078
43078 43080
43078 43079
43078 43080
43078 43079
43080 43081
43080 43081
43093 43094
43093 43532
43093 43094
43093 43532
43094 43511
43094 43511
43115 43116
43115 43117
43115 43116
43115 43117
43118 43119
43118 43119
43170 43171
43170 43174
43170 43171
43170 43174
43171 43172
43171 43173
43171 43172
43171 43173
43175 43176
43175 43177
43175 43176
43175 43177
43177 43178
43177 43179
43177 43178
43177 43179
43179 43180
43179 43181
43179 43180
43179 43181
43183 43184
43183 43184
43184 43192
43184 43193
43184 43192
43184 43193
43185 43186
43185 43186
43185 43192
43185 43192
43190 43191
43190 43193
43190 43191
43190 43193
43190 43201
43190 43201
43191 43192
43191 43194
43191 43194
43191 43192
43192 43193
43192 43193
43194 43199
43194 43199
43200 43201
43200 43201
43201 43211
43201 43205
43201 43211
43201 43212
43201 43205
43201 43212
43202 43203
43202 43203
43203 43204
43203 43204
43204 43214
43204 43205
43204 43205
43204 43214
43205 43211
43205 43206
43205 43211
43205 43206
43206 43207
43206 43210
43206 43207
43206 43210
43207 43208
43207 43209
43207 43208
43207 43209
43211 43213
43211 43213
43225 43452
43225 43452
43226 43227
43226 43227
43227 43228
43227 43228
43227 137495
43227 137495
43230 43231
43230 43231
43241 43242
43241 43254
43241 43256
43241 43242
43241 43254
43241 43256
43242 43243
43242 43243
43243 43244
43243 43244
43244 43275
43244 43340
43244 43275
43244 43340
43245 43246
43245 43246
43246 43247
43246 43247
43247 43248
43247 43249
43247 43248
43247 43249
43249 43250
43249 43251
43249 43250
43249 43251
43251 43252
43251 43255
43251 43252
43251 43255
43252 43253
43252 43255
43252 43255
43252 43253
43253 43254
43253 43254
43254 43255
43254 43255
43256 43257
43256 43263
43256 43280
43256 43257
43256 43263
43256 43280
43257 43258
43257 43259
43257 43258
43257 43259
43259 43260
43259 43261
43259 43260
43259 43261
43261 43263
43261 43262
43261 43263
43261 43262
43263 43264
43263 43301
43263 43264
43263 43301
43264 43265
43264 43276
43264 43265
43264 43276
43265 43275
43265 43266
43265 43275
43265 43266
43266 43274
43266 43274
43272 43274
43272 43274
43274 43275
43274 43275
43279 43306
43279 43280
43279 43280
43279 43306
43299 43301
43299 43301
43301 43302
43301 43302
43308 43309
43308 43312
43308 43309
43308 43312
43338 43339
43338 43339
43339 43340
43339 43340
43339 43345
43339 43345
43340 43362
43340 43362
43361 43362
43361 43362
43362 43363
43362 43363
43400 43402
43400 43401
43400 43402
43400 43416
43400 43401
43400 43416
43401 43417
43401 43410
43401 43417
43401 43410
43402 43415
43402 43415
43406 43407
43406 43408
43406 43407
43406 43408
43408 43411
43408 43409
43408 43411
43408 43409
43409 43414
43409 43410
43409 43410
43409 43414
43410 43414
43410 43414
43411 43414
43411 43414
43413 43418
43413 43418
43415 43416
43415 43416
43416 43417
43416 43417
43428 43431
43428 43431
43429 43430
43429 43431
43429 43431
43429 43430
43431 43432
43431 43432
43440 43441
43440 43442
43440 43441
43440 43442
43466 43467
43466 43468
43466 43467
43466 43468
43494 43495
43494 43496
43494 43495
43494 43496
43496 43497
43496 43498
43496 43497
43496 43498
43533 43539
43533 43539
43534 43535
43534 43536
43534 43535
43534 43536
43536 43541
43536 43537
43536 43541
43536 43537
43537 43539
43537 43538
43537 43539
43537 43538
43539 43540
43539 43540
43544 43547
43544 43547
43545 43546
43545 43547
43545 43550
43545 43550
43545 43547
43545 43546
43547 43548
43547 43549
43547 43548
43547 43549
43553 43554
43553 43554
43554 43555
43554 43555
43556 43557
43556 43557
43564 43565
43564 43566
43564 43565
43564 43566
43577 43578
43577 43590
43577 43578
43577 43590
43578 43579
43578 43589
43578 43579
43578 43589
43579 43580
43579 43588
43579 43580
43579 43588
43580 43581
43580 43587
43580 43581
43580 43587
43581 43586
43581 43582
43581 43586
43581 43582
43582 43596
43582 43583
43582 43584
43582 43596
43582 43583
43582 43584
43584 43585
43584 43585
43584 43598
43584 43598
43585 43597
43585 43597
1486951 1497215
1486951 1497215
1486990 1486991
1486990 1488370
1486990 1494767
1486990 1486991
1486990 1488370
1486990 1494767
1486991 1494608
1486991 1494606
1486991 1494608
1486991 1494606
1487548 1498750
1487548 1487549
1487548 1498750
1487548 1498768
1487548 1487549
1487548 1498768
1487549 1497618
1487549 1497643
1487549 1497618
1487549 1497643
1487550 1487551
1487550 1494603
1487550 1494692
1487550 1487551
1487550 1494692
1487550 1494603
1487707 1487717
1487707 1487717
1487707 1498098
1487707 1498098
1487717 1487727
1487717 1487727
1487718 1487719
1487718 1487780
1487718 1487787
1487718 1487955
1487718 1487719
1487718 1487780
1487718 1487787
1487718 1487955
1487719 1496843
1487719 1487781
1487719 1496843
1487719 1487781
1487720 1496843
1487720 1487721
1487720 1487723
1487720 1487724
1487720 1496843
1487720 1487721
1487720 1487724
1487720 1487723
1487727 1487777
1487727 1487791
1487727 1487777
1487727 1487791
1487728 1487729
1487728 1487729
1487728 1487776
1487728 1487790
1487728 1487776
1487728 1487790
1487739 1488186
1487739 1488186
1487747 1487790
1487747 1487748
1487747 1487790
1487747 1487748
1487748 1487790
1487748 1487790
1487748 1488192
1487748 1488192
1487776 1487787
1487776 1487786
1487776 1487787
1487776 1487786
1487777 1487778
1487777 1487779
1487777 1487778
1487777 1487779
1487778 1487779
1487778 1487779
1487779 1487791
1487779 1487791
1487779 1487792
1487779 1487792
1487780 1487781
1487780 1487791
1487780 1487793
1487780 1487781
1487780 1487791
1487780 1487793
1487782 1487783
1487782 1487794
1487782 1487803
1487782 1487783
1487782 1487794
1487782 1487803
1487783 1487787
1487783 1487787
1487785 1487786
1487785 1487786
1487785 1487789
1487785 1487789
1487786 1487788
1487786 1487788
1487788 1487794
1487788 1487794
1487788 1487795
1487788 1487795
1487789 1487797
1487789 1488194
1487789 1488208
1487789 1488194
1487789 1488208
1487789 1487797
1487790 1488194
1487790 1488194
1487792 1487932
1487792 1487932
1487793 1487932
1487793 1487939
1487793 1487932
1487793 1487939
1487794 1487802
1487794 1487802
1487795 1487796
1487795 1487797
1487795 1487797
1487795 1487796
1487797 1488213
1487797 1488213
1487802 1487803
1487802 1487803
1487802 1488213
1487802 1488213
1487803 1488218
1487803 1488218
1487932 1487934
1487932 1498748
1487932 1487934
1487932 1498748
1487934 1487939
1487934 1487939
1487939 1487940
1487939 1487940
1487954 1487956
1487954 1487956
1487954 1487960
1487954 1487960
1487955 1487992
1487955 1487995
1487955 1487996
1487955 1487992
1487955 1487995
1487955 1487996
1487956 1487961
1487956 1487961
1487959 1487960
1487959 1487960
1487959 1487988
1487959 1487988
1487960 1487961
1487960 1487962
1487960 1487961
1487960 1487962
1487961 1487963
1487961 1487963
1487962 1487988
1487962 1487964
1487962 1487988
1487962 1487991
1487962 1487964
1487962 1487991
1487963 1487964
1487963 1487964
1487964 1487992
1487964 1487992
1487986 1487989
1487986 1487987
1487986 1487987
1487986 1487989
1487986 1487990
1487986 1487993
1487986 1487990
1487986 1487993
1487988 1487989
1487988 1487989
1487988 1487990
1487988 1487990
1487990 1487991
1487990 1487991
1487990 1487994
1487990 1487994
1487991 1487992
1487991 1487992
1487991 1488007
1487991 1488007
1487992 1488009
1487992 1488009
1487993 1487994
1487993 1487994
1487994 1488002
1487994 1488007
1487994 1488007
1487994 1488002
1487995 1487996
1487995 1488011
1487995 1488143
1487995 1487996
1487995 1488011
1487995 1488143
1487996 1488220
1487996 1488278
1487996 1488220
1487996 1488278
1488002 1488008
1488002 1488008
1488007 1488008
1488007 1488009
1488007 1488009
1488007 1488008
1488008 1488010
1488008 1488012
1488008 1488012
1488008 1488010
1488009 1488010
1488009 1488010
1488010 1488013
1488010 1488013
1488011 1488294
1488011 1488297
1488011 1488298
1488011 1488294
1488011 1488297
1488011 1488298
1488012 1488013
1488012 1488013
1488013 1488141
1488013 1488141
1488068 1488069
1488068 1494985
1488068 1497726
1488068 1488069
1488068 1494985
1488068 1497726
1488136 1488139
1488136 1488146
1488136 1488139
1488136 1488146
1488139 1488142
1488139 1488142
1488141 1488142
1488141 1488142
1488142 1488150
1488142 1488150
1488143 1488153
1488143 1488154
1488143 1488153
1488143 1488154
1488144 1488146
1488144 1488146
1488146 1488149
1488146 1488150
1488146 1488150
1488146 1488149
1488149 1488151
1488149 1488151
1488150 1488151
1488150 1488153
1488150 1488153
1488150 1488151
1488151 1488152
1488151 1488152
1488152 1488153
1488152 1488154
1488152 1488153
1488152 1488154
1488152 1488158
1488152 1488158
1488154 1488155
1488154 1488156
1488154 1488155
1488154 1488156
1488155 1488156
1488155 1488157
1488155 1488156
1488155 1488157
1488156 1488158
1488156 1488158
1488156 1488159
1488156 1488490
1488156 1488159
1488156 1488490
1488157 1498706
1488157 1498708
1488157 1498706
1488157 1498708
1488158 1488163
1488158 1488163
1488159 1488163
1488159 1488167
1488159 1488178
1488159 1488163
1488159 1488178
1488159 1488167
1488161 1488163
1488161 1488163
1488163 1488177
1488163 1488177
1488166 1488167
1488166 1488167
1488166 1488169
1488166 1488169
1488167 1497780
1488167 1497780
1488169 1488181
1488169 1497778
1488169 1498551
1488169 1488181
1488169 1497778
1488169 1498551
1488173 1488174
1488173 1488184
1488173 1497785
1488173 1488174
1488173 1488184
1488173 1497785
1488174 1497788
1488174 1497788
1488174 1497789
1488174 1497789
1488176 1488178
1488176 1488177
1488176 1488177
1488176 1488178
1488176 1488546
1488176 1488546
1488178 1488179
1488178 1488548
1488178 1488179
1488178 1488548
1488179 1488180
1488179 1488550
1488179 1488180
1488179 1488550
1488180 1497778
1488180 1497778
1488181 1497783
1488181 1497783
1488182 1488183
1488182 1488551
1488182 1488576
1488182 1494786
1488182 1488183
1488182 1488551
1488182 1488576
1488182 1494786
1488183 1498551
1488183 1488550
1488183 1488550
1488183 1498551
1488184 1488490
1488184 1488489
1488184 1488490
1488184 1488489
1488186 1488188
1488186 1488190
1488186 1488188
1488186 1488190
1488188 1497640
1488188 1497641
1488188 1497640
1488188 1497641
1488192 1488193
1488192 1488193
1488193 1488198
1488193 1488202
1488193 1488202
1488193 1488198
1488194 1488201
1488194 1488201
1488195 1488196
1488195 1488228
1488195 1488196
1488195 1488228
1488196 1488231
1488196 1488260
1488196 1499002
1488196 1488231
1488196 1488260
1488196 1499002
1488197 1497640
1488197 1488198
1488197 1488198
1488197 1488204
1488197 1497640
1488197 1488204
1488198 1497649
1488198 1497649
1488201 1488202
1488201 1488202
1488201 1488206
1488201 1488206
1488204 1488205
1488204 1488206
1488204 1488206
1488204 1488205
1488205 1488210
1488205 1488211
1488205 1488210
1488205 1488211
1488206 1488208
1488206 1488207
1488206 1488208
1488206 1488207
1488207 1488211
1488207 1488209
1488207 1488211
1488207 1497650
1488207 1488209
1488207 1497650
1488208 1488209
1488208 1488216
1488208 1488209
1488208 1488216
1488210 1488212
1488210 1488221
1488210 1488212
1488210 1488221
1488212 1488222
1488212 1497646
1488212 1497646
1488212 1488222
1488213 1488214
1488213 1488214
1488214 1488215
1488214 1488219
1488214 1488215
1488214 1488219
1488216 1488217
1488216 1488221
1488216 1488221
1488216 1488217
1488217 1488218
1488217 1488220
1488217 1488218
1488217 1488220
1488218 1488219
1488218 1488219
1488220 1488222
1488220 1488223
1488220 1488222
1488220 1488223
1488221 1497650
1488221 1497650
1488222 1497859
1488222 1497859
1488223 1488224
1488223 1488225
1488223 1488224
1488223 1488225
1488224 1488225
1488224 1488226
1488224 1488225
1488224 1488226
1488225 1488247
1488225 1488247
1488226 1488227
1488226 1488257
1488226 1499101
1488226 1488227
1488226 1488257
1488226 1499101
1488227 1488228
1488227 1488228
1488227 1498823
1488227 1498823
1488228 1488230
1488228 1494970
1488228 1488230
1488228 1494970
1488229 1488313
1488229 1488230
1488229 1488230
1488229 1488269
1488229 1488313
1488229 1488269
1488230 1494588
1488230 1494588
1488231 1488232
1488231 1488263
1488231 1488232
1488231 1488263
1488232 1488240
1488232 1498931
1488232 1488240
1488232 1498931
1488233 1488234
1488233 1488234
1488234 1498370
1488234 1498370
1488235 1488237
1488235 1488244
1488235 1498831
1488235 1488244
1488235 1488237
1488235 1498831
1488237 1498874
1488237 1498874
1488237 1498876
1488237 1498876
1488238 1488239
1488238 1488448
1488238 1488470
1488238 1488239
1488238 1488448
1488238 1488470
1488239 1488311
1488239 1499958
1488239 1488311
1488239 1499958
1488240 1488343
1488240 1489346
1488240 1488343
1488240 1489346
1488242 1488243
1488242 1488245
1488242 1488378
1488242 1498892
1488242 1488243
1488242 1488245
1488242 1488378
1488242 1498892
1488243 1488358
1488243 1498891
1488243 1488358
1488243 1498891
1488244 1497229
1488244 1497229
1488244 1497230
1488244 1497230
1488245 1488246
1488245 1488254
1488245 1489347
1488245 1488246
1488245 1489347
1488245 1488254
1488246 1488391
1488246 1488393
1488246 1488393
1488246 1488391
1488247 1488248
1488247 1488249
1488247 1488248
1488247 1488249
1488248 1488250
1488248 1488256
1488248 1499155
1488248 1488250
1488248 1488256
1488248 1499155
1488249 1488250
1488249 1488252
1488249 1488250
1488249 1488252
1488250 1488251
1488250 1488253
1488250 1488251
1488250 1488253
1488251 1488258
1488251 1488274
1488251 1488258
1488251 1488274
1488252 1488253
1488252 1488272
1488252 1488253
1488252 1488272
1488253 1488273
1488253 1488274
1488253 1488274
1488253 1488273
1488254 1488255
1488254 1488255
1488255 1494737
1488255 1496855
1488255 1494737
1488255 1496855
1488256 1488257
1488256 1488257
1488256 1488258
1488256 1499156
1488256 1488258
1488256 1499156
1488257 1488287
1488257 1488287
1488258 1488283
1488258 1488283
1488260 1488261
1488260 1488264
1488260 1488265
1488260 1488261
1488260 1488264
1488260 1488265
1488262 1488263
1488262 1488343
1488262 1488263
1488262 1488343
1488263 1498078
1488263 1498078
1488265 1488269
1488265 1488269
1488265 1498077
1488265 1498077
1488266 1488267
1488266 1496858
1488266 1499582
1488266 1488267
1488266 1496858
1488266 1499582
1488268 1488269
1488268 1498078
1488268 1488269
1488268 1488360
1488268 1498078
1488268 1488360
1488272 1488278
1488272 1488273
1488272 1488278
1488272 1488273
1488273 1488275
1488273 1488279
1488273 1488275
1488273 1488279
1488274 1488277
1488274 1488283
1488274 1488283
1488274 1488277
1488275 1488276
1488275 1488277
1488275 1488277
1488275 1488276
1488276 1488279
1488276 1488279
1488276 1488282
1488276 1488295
1488276 1488282
1488276 1488295
1488277 1488282
1488277 1488285
1488277 1488282
1488277 1488285
1488278 1488279
1488278 1488280
1488278 1488279
1488278 1488280
1488279 1488281
1488279 1488281
1488280 1488294
1488280 1488281
1488280 1488294
1488280 1488281
1488281 1488294
1488281 1488295
1488281 1488294
1488281 1488295
1488282 1488289
1488282 1488296
1488282 1488289
1488282 1488296
1488283 1488285
1488283 1488285
1488285 1488287
1488285 1488287
1488285 1488289
1488285 1488289
1488287 1488291
1488287 1488290
1488287 1488291
1488287 1488290
1488289 1488290
1488289 1488302
1488289 1488290
1488289 1488302
1488290 1488293
1488290 1488304
1488290 1488304
1488290 1488293
1488291 1488310
1488291 1488314
1488291 1488310
1488291 1488314
1488293 1488314
1488293 1488314
1488295 1488296
1488295 1488296
1488296 1488299
1488296 1488302
1488296 1488302
1488296 1488299
1488297 1488299
1488297 1488303
1488297 1488299
1488297 1488303
1488298 1488300
1488298 1488301
1488298 1488300
1488298 1488301
1488300 1488303
1488300 1488303
1488300 1488306
1488300 1498696
1488300 1488306
1488300 1498696
1488301 1488407
1488301 1488408
1488301 1488407
1488301 1488408
1488303 1488304
1488303 1488304
1488304 1488318
1488304 1495723
1488304 1488318
1488304 1495723
1488306 1498693
1488306 1498695
1488306 1498696
1488306 1498696
1488306 1498695
1488306 1498693
1488310 1498823
1488310 1498823
1488310 1498824
1488310 1498824
1488311 1488312
1488311 1499921
1488311 1488312
1488311 1499921
1488312 1488448
1488312 1488448
1488312 1488482
1488312 1488483
1488312 1488482
1488312 1488483
1488313 1498824
1488313 1498825
1488313 1498824
1488313 1498825
1488315 1488316
1488315 1488316
1488315 1488319
1488315 1488573
1488315 1488573
1488315 1488319
1488318 1488319
1488318 1488323
1488318 1488324
1488318 1488319
1488318 1488323
1488318 1488324
1488319 1496856
1488319 1496856
1488323 1488378
1488323 1488378
1488324 1496857
1488324 1498733
1488324 1496857
1488324 1498733
1488330 1496857
1488330 1496857
1488334 1488342
1488334 1488342
1488341 1488342
1488341 1488342
1488342 1488469
1488342 1488469
1488343 1488361
1488343 1488361
1488349 1488356
1488349 1488356
1488352 1488353
1488352 1488353
1488353 1488354
1488353 1488355
1488353 1488354
1488353 1488355
1488354 1488356
1488354 1488356
1488355 1488356
1488355 1488356
1488355 1488357
1488355 1488357
1488357 1488358
1488357 1488358
1488357 1488372
1488357 1488372
1488358 1489346
1488358 1488359
1488358 1489346
1488358 1488359
1488359 1498890
1488359 1498939
1488359 1498890
1488359 1498939
1488360 1488361
1488360 1488361
1488368 1488371
1488368 1488371
1488371 1488372
1488371 1488372
1488371 1488373
1488371 1494967
1488371 1488373
1488371 1494967
1488372 1488374
1488372 1488374
1488373 1488374
1488373 1488374
1488374 1488375
1488374 1488375
1488378 1496863
1488378 1496863
1488379 1488380
1488379 1488380
1488379 1488403
1488379 1488507
1488379 1488507
1488379 1488403
1488380 1496855
1488380 1496855
1488381 1488382
1488381 1488384
1488381 1488387
1488381 1488389
1488381 1488382
1488381 1488384
1488381 1488387
1488381 1488389
1488382 1498833
1488382 1498834
1488382 1498834
1488382 1498833
1488383 1488384
1488383 1488384
1488383 1488385
1488383 1488386
1488383 1488385
1488383 1488386
1488384 1488388
1488384 1488388
1488386 1488390
1488386 1488396
1488386 1488390
1488386 1488396
1488389 1488391
1488389 1488390
1488389 1488391
1488389 1488390
1488390 1488393
1488390 1488392
1488390 1488393
1488390 1488392
1488393 1488394
1488393 1488395
1488393 1488394
1488393 1488395
1488394 1488399
1488394 1499577
1488394 1499577
1488394 1488399
1488398 1498874
1488398 1488399
1488398 1488401
1488398 1498874
1488398 1488399
1488398 1488401
1488399 1488403
1488399 1488400
1488399 1488403
1488399 1488400
1488400 1488401
1488400 1488401
1488400 1488402
1488400 1488510
1488400 1488402
1488400 1488510
1488401 1497224
1488401 1497225
1488401 1497224
1488401 1497225
1488402 1488515
1488402 1497233
1488402 1497236
1488402 1488515
1488402 1497236
1488402 1497233
1488403 1488510
1488403 1488510
1488408 1497039
1488408 1497039
1488422 1488423
1488422 1499209
1488422 1500160
1488422 1488423
1488422 1500160
1488422 1499209
1488423 1497221
1488423 1497217
1488423 1497221
1488423 1497217
1488426 1488450
1488426 1488450
1488428 1496857
1488428 1488450
1488428 1488450
1488428 1496857
1488439 1488440
1488439 1488440
1488440 1488469
1488440 1488443
1488440 1488469
1488440 1488443
1488446 1488450
1488446 1488447
1488446 1488450
1488446 1488447
1488447 1488450
1488447 1488450
1488448 1488449
1488448 1498550
1488448 1488449
1488448 1498550
1488449 1491735
1488449 1496952
1488449 1499937
1488449 1491735
1488449 1496952
1488449 1499937
1488450 1500150
1488450 1500150
1488451 1488490
1488451 1488452
1488451 1488490
1488451 1488491
1488451 1488452
1488451 1488491
1488452 1500150
1488452 1488491
1488452 1500150
1488452 1488491
1488468 1488476
1488468 1488476
1488469 1488470
1488469 1488470
1488470 1488477
1488470 1488477
1488476 1488477
1488476 1499571
1488476 1488477
1488476 1499571
1488477 1488478
1488477 1488478
1488478 1499958
1488478 1499893
1488478 1499958
1488478 1499893
1488482 1488484
1488482 1497976
1488482 1488484
1488482 1497976
1488483 1488498
1488483 1499166
1488483 1488498
1488483 1499166
1488484 1488485
1488484 1488488
1488484 1488485
1488484 1488488
1488486 1488494
1488486 1488487
1488486 1488494
1488486 1488496
1488486 1488487
1488486 1488496
1488487 1497976
1488487 1497976
1488487 1499193
1488487 1499193
1488490 1488601
1488490 1488601
1488491 1498603
1488491 1499572
1488491 1499572
1488491 1498603
1488492 1499572
1488492 1498603
1488492 1488493
1488492 1488497
1488492 1498603
1488492 1499572
1488492 1488493
1488492 1488497
1488493 1488495
1488493 1488519
1488493 1499573
1488493 1488495
1488493 1499573
1488493 1488519
1488494 1497795
1488494 1497795
1488495 1488496
1488495 1488496
1488495 1499190
1488495 1499190
1488496 1499164
1488496 1499164
1488497 1488519
1488497 1488520
1488497 1488519
1488497 1488520
1488498 1488499
1488498 1488500
1488498 1488499
1488498 1488500
1488499 1488501
1488499 1497792
1488499 1488501
1488499 1497792
1488501 1488502
1488501 1488503
1488501 1488502
1488501 1488503
1488502 1488504
1488502 1488504
1488502 1498185
1488502 1498185
1488504 1497798
1488504 1497798
1488505 1488506
1488505 1488506
1488506 1488507
1488506 1488507
1488506 1488508
1488506 1488508
1488507 1488509
1488507 1488512
1488507 1488509
1488507 1488512
1488509 1488510
1488509 1488510
1488509 1488511
1488509 1488513
1488509 1488511
1488509 1488513
1488510 1497236
1488510 1497236
1488511 1488515
1488511 1488513
1488511 1488515
1488511 1488516
1488511 1488513
1488511 1488516
1488512 1488513
1488512 1488514
1488512 1488513
1488512 1488514
1488513 1488523
1488513 1488523
1488514 1488521
1488514 1497802
1488514 1488521
1488514 1497802
1488515 1489289
1488515 1489291
1488515 1489292
1488515 1497236
1488515 1497238
1488515 1497236
1488515 1489289
1488515 1489291
1488515 1489292
1488515 1497238
1488516 1489293
1488516 1489302
1488516 1489293
1488516 1489302
1488518 1497797
1488518 1497801
1488518 1497797
1488518 1497801
1488519 1499581
1488519 1488520
1488519 1499581
1488519 1488520
1488520 1498603
1488520 1488521
1488520 1498603
1488520 1488521
1488521 1488522
1488521 1488599
1488521 1488522
1488521 1488599
1488522 1488523
1488522 1488523
1488522 1488524
1488522 1488524
1488523 1488525
1488523 1488526
1488523 1488525
1488523 1488526
1488525 1488600
1488525 1494798
1488525 1494798
1488525 1488600
1488526 1489303
1488526 1489304
1488526 1489303
1488526 1489304
1488546 1488547
1488546 1488547
1488547 1488548
1488547 1488548
1488547 1488549
1488547 1488549
1488548 1488550
1488548 1488550
1488549 1488550
1488549 1488551
1488549 1488550
1488549 1488551
1488549 1488567
1488549 1488567
1488551 1488575
1488551 1488575
1488567 1488570
1488567 1488571
1488567 1488571
1488567 1488570
1488576 1488601
1488576 1488602
1488576 1488606
1488576 1488601
1488576 1488602
1488576 1488606
1488595 1488596
1488595 1488597
1488595 1488596
1488595 1488597
1488596 1494787
1488596 1494787
1488596 1494789
1488596 1494792
1488596 1494789
1488596 1494792
1488597 1489182
1488597 1489184
1488597 1494795
1488597 1489182
1488597 1494795
1488597 1489184
1488599 1488601
1488599 1498603
1488599 1488600
1488599 1488601
1488599 1498603
1488599 1488600
1488600 1488602
1488600 1494794
1488600 1488602
1488600 1494794
1488601 1488602
1488601 1488602
1488602 1494794
1488602 1494794
1488603 1488604
1488603 1488605
1488603 1492608
1488603 1488604
1488603 1488605
1488603 1492608
1488604 1497859
1488604 1494969
1488604 1497859
1488604 1494969
1488605 1489298
1488605 1489299
1488605 1489298
1488605 1489299
1488606 1494793
1488606 1494799
1488606 1494816
1488606 1494793
1488606 1494799
1488606 1494816
1489168 1489169
1489168 1489169
1489169 1489184
1489169 1489184
1489169 1494815
1489169 1494818
1489169 1494815
1489169 1494818
1489178 1489181
1489178 1489181
1489181 1494818
1489181 1489197
1489181 1489198
1489181 1494818
1489181 1489197
1489181 1489198
1489182 1489184
1489182 1489184
1489184 1494814
1489184 1494814
1489198 1494843
1489198 1494843
1489267 1489268
1489267 1489271
1489267 1489268
1489267 1489271
1489268 1489269
1489268 1489269
1489269 1489270
1489269 1489270
1489270 1489283
1489270 1489278
1489270 1489283
1489270 1489278
1489271 1489272
1489271 1489272
1489272 1489273
1489272 1489273
1489273 1489275
1489273 1489274
1489273 1489275
1489273 1489274
1489274 1489275
1489274 1489275
1489274 1489276
1489274 1489276
1489278 1489284
1489278 1489286
1489278 1489287
1489278 1489284
1489278 1489286
1489278 1489287
1489279 1489280
1489279 1489281
1489279 1489282
1489279 1489280
1489279 1489281
1489279 1489282
1489280 1489282
1489280 1489283
1489280 1489283
1489280 1489282
1489281 1489282
1489281 1489282
1489282 1489284
1489282 1489284
1489283 1489284
1489283 1489284
1489284 1489285
1489284 1489285
1489285 1489286
1489285 1489286
1489286 1489289
1489286 1489288
1489286 1489289
1489286 1489288
1489287 1489288
1489287 1489296
1489287 1489297
1489287 1489288
1489287 1489296
1489287 1489297
1489288 1489291
1489288 1489291
1489288 1489295
1489288 1489295
1489289 1489290
1489289 1489291
1489289 1489291
1489289 1489290
1489291 1489292
1489291 1489292
1489292 1489293
1489292 1489294
1489292 1489293
1489292 1489294
1489293 1489294
1489293 1489300
1489293 1489294
1489293 1489300
1489294 1489295
1489294 1489295
1489294 1489301
1489294 1489301
1489295 1489306
1489295 1489306
1489297 1489309
1489297 1489310
1489297 1489309
1489297 1489310
1489299 1494811
1489299 1494811
1489300 1489302
1489300 1489303
1489300 1489302
1489300 1489303
1489301 1489305
1489301 1489306
1489301 1489313
1489301 1489306
1489301 1489305
1489301 1489313
1489303 1489304
1489303 1489305
1489303 1489304
1489303 1489305
1489304 1489336
1489304 1489337
1489304 1489336
1489304 1489337
1489305 1494922
1489305 1494922
1489306 1489321
1489306 1489323
1489306 1489321
1489306 1489323
1489307 1489308
1489307 1489311
1489307 1489326
1489307 1489308
1489307 1489311
1489307 1489326
1489309 1489310
1489309 1489314
1489309 1489310
1489309 1489314
1489310 1489318
1489310 1489319
1489310 1489318
1489310 1489319
1489311 1489312
1489311 1489315
1489311 1489312
1489311 1489315
1489313 1490995
1489313 1494926
1489313 1494929
1489313 1494926
1489313 1494929
1489313 1490995
1489314 1489321
1489314 1489320
1489314 1489321
1489314 1489320
1489315 1489316
1489315 1489317
1489315 1489316
1489315 1489317
1489317 1489326
1489317 1489326
1489317 1489327
1489317 1489327
1489318 1489320
1489318 1489322
1489318 1489320
1489318 1489322
1489319 1489328
1489319 1489329
1489319 1489330
1489319 1489328
1489319 1489330
1489319 1489329
1489320 1489324
1489320 1489324
1489321 1489324
1489321 1489325
1489321 1489324
1489321 1489325
1489322 1489324
1489322 1489325
1489322 1489328
1489322 1489328
1489322 1489324
1489322 1489325
1489323 1489325
1489323 1489342
1489323 1494921
1489323 1489325
1489323 1489342
1489323 1494921
1489324 1489325
1489324 1489325
1489326 1489331
1489326 1489331
1489328 1489329
1489328 1489329
1489329 1489330
1489329 1489330
1489329 1494919
1489329 1494919
1489330 1489331
1489330 1489331
1489331 1489332
1489331 1489332
1489332 1489333
1489332 1489333
1489334 1489335
1489334 1494918
1489334 1494941
1489334 1489335
1489334 1494918
1489334 1494941
1489335 1494945
1489335 1494946
1489335 1494946
1489335 1494945
1489342 1494920
1489342 1494937
1489342 1494938
1489342 1494920
1489342 1494937
1489342 1494938
1489346 1498933
1489346 1498933
1489347 1498830
1489347 1498841
1489347 1498830
1489347 1498841
1489348 1498097
1489348 1498097
1490995 1490996
1490995 1491012
1490995 1491280
1490995 1490996
1490995 1491012
1490995 1491280
1490996 1491281
1490996 1494931
1490996 1494932
1490996 1494931
1490996 1494932
1490996 1491281
1491012 1494929
1491012 1494929
1491012 1494931
1491012 1494931
1491280 1491281
1491280 1494991
1491280 1491281
1491280 1494991
1491281 1494933
1491281 1494993
1491281 1494933
1491281 1494993
1491735 1491765
1491735 1491765
1491765 1496859
1491765 1496859
35997 35998
35997 35998
35998 35999
35998 35999
1492143 1492144
1492143 1499966
1492143 1492144
1492143 1499966
1492144 1500020
1492144 1500028
1492144 1500020
1492144 1500028
1492194 1492195
1492194 1494964
1492194 1801098
1492194 1492195
1492194 1494964
1492194 1801098
1492195 1492207
1492195 1801098
1492195 1801098
1492195 1492207
1492207 1801098
1492207 1494951
1492207 1801098
1492207 1494951
1492338 1492352
1492338 1492339
1492338 1492352
1492338 1492339
1492352 1497586
1492352 1497586
1492595 1497859
1492595 1492596
1492595 1496987
1492595 1497859
1492595 1492596
1492595 1496987
1492596 1498793
1492596 1498795
1492596 1498795
1492596 1498793
1492608 1492622
1492608 1498930
1492608 1492622
1492608 1498930
1492621 1492622
1492621 1492622
1492621 1492696
1492621 1494356
1492621 1498997
1492621 1492696
1492621 1494356
1492621 1498997
1492622 1492624
1492622 1492634
1492622 1492624
1492622 1492634
1492634 1492696
1492634 1492638
1492634 1492696
1492634 1492638
1492696 1496985
1492696 1496985
1494356 1494358
1494356 1494358
1494358 1496985
1494358 1494359
1494358 1496985
1494358 1494359
1494456 1494457
1494456 1494475
1494456 1494539
1494456 1494457
1494456 1494539
1494456 1494475
1494457 1494471
1494457 1494538
1494457 1494538
1494457 1494471
1494473 1494474
1494473 1494475
1494473 1494559
1494473 1494559
1494473 1494474
1494473 1494475
1494474 1494577
1494474 1494577
1494475 1494556
1494475 1494556
1494538 1494539
1494538 1494539
1494539 1494555
1494539 1494555
1494554 1494555
1494554 1497437
1494554 1497437
1494554 1494555
1494555 1494556
1494555 1494556
1494556 1497437
1494556 1497437
1494568 1494569
1494568 1494577
1494568 1494569
1494568 1494573
1494568 1494577
1494568 1494573
1494573 1494575
1494573 1494575
1494574 1494575
1494574 1494576
1494574 1494579
1494574 1494579
1494574 1494576
1494574 1494575
1494576 1494577
1494576 1494577
1494580 1494584
1494580 1494584
1494581 1494621
1494581 1494582
1494581 1494621
1494581 1494582
1494582 1494583
1494582 1494583
1494583 1494641
1494583 1494641
1494584 1494585
1494584 1494642
1494584 1494585
1494584 1494642
1494586 1494587
1494586 1494587
1494587 1494591
1494587 1494594
1494587 1494591
1494587 1494594
1494588 1494589
1494588 1499114
1494588 1494589
1494588 1499114
1494589 1497396
1494589 1497396
1494590 1494591
1494590 1494591
1494591 1494592
1494591 1494592
1494592 1494593
1494592 1494647
1494592 1494593
1494592 1494647
1494593 1494594
1494593 1494594
1494593 1494644
1494593 1494646
1494593 1494646
1494593 1494644
1494594 1494645
1494594 1494645
1494595 1494596
1494595 1494596
1494596 1494597
1494596 1494647
1494596 1494597
1494596 1494598
1494596 1494647
1494596 1494598
1494598 1494695
1494598 1494700
1494598 1494695
1494598 1494700
1494599 1494600
1494599 1494601
1494599 1494600
1494599 1494601
1494601 1494603
1494601 1494602
1494601 1494603
1494601 1494602
1494602 1497807
1494602 1497808
1494602 1497807
1494602 1497808
1494603 1494667
1494603 1494667
1494604 1494606
1494604 1494607
1494604 1494606
1494604 1494607
1494605 1494762
1494605 1494763
1494605 1494764
1494605 1494762
1494605 1494763
1494605 1494764
1494606 1494709
1494606 1494766
1494606 1494709
1494606 1494766
1494607 1494704
1494607 1494708
1494607 1494709
1494607 1494709
1494607 1494708
1494607 1494704
1494608 1494763
1494608 1494769
1494608 1494769
1494608 1494763
1494620 1494621
1494620 1494621
1494642 1494651
1494642 1494651
1494644 1494645
1494644 1494648
1494644 1494645
1494644 1494648
1494646 1494647
1494646 1494647
1494646 1494658
1494646 1494661
1494646 1494658
1494646 1494661
1494647 1494695
1494647 1494695
1494648 1494649
1494648 1494649
1494649 1494659
1494649 1494659
1494651 1494652
1494651 1494654
1494651 1494652
1494651 1494654
1494652 1494655
1494652 1494656
1494652 1494656
1494652 1494655
1494653 1494661
1494653 1494654
1494653 1494655
1494653 1494654
1494653 1494655
1494653 1494661
1494654 1494660
1494654 1494660
1494655 1494663
1494655 1494663
1494658 1494698
1494658 1494666
1494658 1494696
1494658 1494698
1494658 1494666
1494658 1494696
1494659 1494661
1494659 1494660
1494659 1494661
1494659 1494660
1494661 1494662
1494661 1494662
1494662 1494663
1494662 1494666
1494662 1494663
1494662 1494666
1494666 1494697
1494666 1494697
1494671 1494697
1494671 1494716
1494671 1494697
1494671 1494716
1494684 1497215
1494684 1497215
1494692 1494693
1494692 1494700
1494692 1494700
1494692 1494693
1494695 1494696
1494695 1494696
1494696 1494699
1494696 1494699
1494697 1494715
1494697 1494715
1494698 1494712
1494698 1494715
1494698 1494715
1494698 1494712
1494699 1494712
1494699 1494713
1494699 1494712
1494699 1494713
1494700 1494703
1494700 1494703
1494700 1494707
1494700 1494707
1494702 1494730
1494702 1494749
1494702 1494730
1494702 1494749
1494703 1494704
1494703 1494704
1494704 1494708
1494704 1494708
1494704 1494710
1494704 1494710
1494705 1494706
1494705 1494707
1494705 1494706
1494705 1494707
1494705 1494728
1494705 1494729
1494705 1494728
1494705 1494729
1494706 1497811
1494706 1497811
1494707 1494727
1494707 1494719
1494707 1494727
1494707 1494719
1494708 1494709
1494708 1494709
1494708 1494710
1494708 1494710
1494709 1494710
1494709 1494710
1494710 1494711
1494710 1494711
1494711 1494734
1494711 1494734
1494712 1494714
1494712 1494714
1494713 1494718
1494713 1494717
1494713 1494718
1494713 1494717
1494714 1494718
1494714 1494718
1494715 1494716
1494715 1494716
1494718 1494719
1494718 1494719
1494719 1494720
1494719 1494720
1494727 1494745
1494727 1494745
1494728 1494731
1494728 1494732
1494728 1494732
1494728 1494731
1494729 1494744
1494729 1494738
1494729 1494744
1494729 1494738
1494730 1494731
1494730 1494733
1494730 1494731
1494730 1494733
1494731 1497809
1494731 1497809
1494733 1494735
1494733 1494756
1494733 1494735
1494733 1494756
1494734 1494774
1494734 1494766
1494734 1494774
1494734 1494766
1494735 1494738
1494735 1494736
1494735 1494738
1494735 1494736
1494738 1494750
1494738 1494752
1494738 1494750
1494738 1494752
1494739 1494740
1494739 1494743
1494739 1494757
1494739 1494740
1494739 1494743
1494739 1494757
1494741 1494750
1494741 1494743
1494741 1494742
1494741 1494743
1494741 1494750
1494741 1494742
1494743 1494759
1494743 1494759
1494744 1494745
1494744 1494745
1494750 1494751
1494750 1494751
1494751 1494753
1494751 1494755
1494751 1494753
1494751 1494755
1494752 1494753
1494752 1494754
1494752 1494753
1494752 1494754
1494756 1494757
1494756 1494758
1494756 1494757
1494756 1494758
1494757 1497034
1494757 1497034
1494759 1494760
1494759 1494760
1494762 1494765
1494762 1494764
1494762 1494765
1494762 1494768
1494762 1494764
1494762 1494768
1494763 1494764
1494763 1494768
1494763 1494764
1494763 1494768
1494764 1494768
1494764 1494768
1494765 1494771
1494765 1494771
1494766 1494774
1494766 1494767
1494766 1494767
1494766 1494774
1494767 1499116
1494767 1499116
1494768 1494770
1494768 1494770
1494769 1494770
1494769 1494770
1494769 1494775
1494769 1494775
1494770 1494773
1494770 1494773
1494772 1494773
1494772 1494773
1494773 1497819
1494773 1497819
1494775 1497818
1494775 1497819
1494775 1497818
1494775 1497819
1494786 1494789
1494786 1494790
1494786 1494789
1494786 1494790
1494789 1494790
1494789 1494790
1494790 1494791
1494790 1494791
1494791 1494792
1494791 1494793
1494791 1494792
1494791 1494793
1494792 1494793
1494792 1494793
1494794 1494796
1494794 1494797
1494794 1494796
1494794 1494797
1494795 1494814
1494795 1494815
1494795 1494816
1494795 1494816
1494795 1494815
1494795 1494814
1494796 1494803
1494796 1494805
1494796 1494807
1494796 1494805
1494796 1494803
1494796 1494807
1494797 1494801
1494797 1494805
1494797 1494817
1494797 1494805
1494797 1494801
1494797 1494817
1494798 1494803
1494798 1494804
1494798 1494803
1494798 1494804
1494799 1494800
1494799 1497607
1494799 1494800
1494799 1497607
1494800 1494801
1494800 1494801
1494800 1494802
1494800 1494802
1494801 1497608
1494801 1497608
1494803 1494808
1494803 1494808
1494804 1494808
1494804 1494808
1494805 1494806
1494805 1494806
1494806 1494810
1494806 1494827
1494806 1494810
1494806 1494827
1494807 1494808
1494807 1494809
1494807 1494810
1494807 1494808
1494807 1494810
1494807 1494809
1494808 1494922
1494808 1494922
1494809 1494812
1494809 1494959
1494809 1494968
1494809 1494812
1494809 1494959
1494809 1494968
1494810 1494812
1494810 1494829
1494810 1494812
1494810 1494829
1494811 1497175
1494811 1497175
1494812 1494830
1494812 1494957
1494812 1494830
1494812 1494957
1494814 1494815
1494814 1494815
1494816 1494817
1494816 1494818
1494816 1494818
1494816 1494817
1494817 1494827
1494817 1494839
1494817 1494827
1494817 1494839
1494818 1494819
1494818 1494819
1494819 1494820
1494819 1494823
1494819 1494820
1494819 1494823
1494823 1494826
1494823 1494826
1494824 1494957
1494824 1494825
1494824 1494957
1494824 1494973
1494824 1494825
1494824 1494973
1494825 1494957
1494825 1494831
1494825 1494833
1494825 1494957
1494825 1494831
1494825 1494833
1494826 1494838
1494826 1494841
1494826 1494838
1494826 1494841
1494827 1494828
1494827 1494833
1494827 1494833
1494827 1494828
1494828 1494829
1494828 1494830
1494828 1494831
1494828 1494829
1494828 1494830
1494828 1494831
1494829 1494830
1494829 1494830
1494830 1494831
1494830 1494831
1494833 1494839
1494833 1494834
1494833 1494839
1494833 1494834
1494834 1494835
1494834 1494836
1494834 1494835
1494834 1494836
1494836 1494846
1494836 1494846
1494838 1494843
1494838 1494839
1494838 1494839
1494838 1494840
1494838 1494843
1494838 1494840
1494839 1494840
1494839 1494840
1494840 1494845
1494840 1494865
1494840 1494845
1494840 1494865
1494843 1495121
1494843 1495121
1494845 1494846
1494845 1494846
1494845 1494865
1494845 1494865
1494851 1494951
1494851 1494852
1494851 1494951
1494851 1801100
1494851 1494852
1494851 1801100
1494852 1498398
1494852 1498398
1494852 1801100
1494852 1801100
1494865 1495121
1494865 1498607
1494865 1495121
1494865 1498607
1494907 1494908
1494907 1494908
1494908 1494910
1494908 1494913
1494908 1494913
1494908 1494910
1494909 1494910
1494909 1494910
1494910 1494911
1494910 1494911
1494913 1494914
1494913 1494915
1494913 1494914
1494913 1494915
1494914 1494916
1494914 1494916
1494916 1494917
1494916 1494917
1494917 1494918
1494917 1494918
1494918 1494919
1494918 1494919
1494919 1494939
1494919 1494941
1494919 1494941
1494919 1494939
1494920 1494921
1494920 1494921
1494920 1494931
1494920 1494931
1494921 1494930
1494921 1494930
1494922 1494923
1494922 1494924
1494922 1494923
1494922 1494924
1494923 1494926
1494923 1494924
1494923 1494925
1494923 1494926
1494923 1494924
1494923 1494925
1494924 1494959
1494924 1494927
1494924 1494959
1494924 1494927
1494926 1494928
1494926 1494928
1494927 1494959
1494927 1494959
1494927 1494977
1494927 1494978
1494927 1494977
1494927 1494978
1494928 1494990
1494928 1494990
1494929 1494930
1494929 1494930
1494932 1494933
1494932 1495000
1494932 1495002
1494932 1494933
1494932 1495000
1494932 1495002
1494933 1494993
1494933 1495001
1494933 1494993
1494933 1495001
1494934 1494945
1494934 1494935
1494934 1494945
1494934 1494935
1494935 1494936
1494935 1494936
1494936 1494955
1494936 1494955
1494937 1494939
1494937 1494940
1494937 1494939
1494937 1494940
1494938 1494940
1494938 1494943
1494938 1494944
1494938 1494940
1494938 1494943
1494938 1494944
1494939 1494941
1494939 1494940
1494939 1494941
1494939 1494940
1494941 1494942
1494941 1494942
1494942 1494946
1494942 1494946
1494942 1494947
1494942 1495019
1494942 1494947
1494942 1495019
1494943 1494944
1494943 1495018
1494943 1495019
1494943 1494944
1494943 1495019
1494943 1495018
1494944 1495000
1494944 1495000
1494944 1495004
1494944 1495004
1494945 1494946
1494945 1494946
1494946 1495038
1494946 1495038
1494947 1495019
1494947 1495032
1494947 1495033
1494947 1495019
1494947 1495032
1494947 1495033
1494948 1494949
1494948 1494950
1494948 1494949
1494948 1494950
1494949 1494951
1494949 1494951
1494950 1494952
1494950 1494952
1494952 1494953
1494952 1494953
1494953 1494954
1494953 1494954
1494954 1494964
1494954 1494958
1494954 1494964
1494954 1494958
1494955 1494956
1494955 1494956
1494956 1494961
1494956 1494961
1494957 1494968
1494957 1494968
1494958 1494964
1494958 1494963
1494958 1494964
1494958 1494963
1494959 1494968
1494959 1494968
1494961 1494962
1494961 1494962
1494962 1494963
1494962 1494963
1494962 1494965
1494962 1494965
1494963 1494965
1494963 1494965
1494965 1495038
1494965 1495038
1494967 1499079
1494967 1499079
1494968 1494971
1494968 1494971
1494969 1494970
1494969 1494970
1494969 1497175
1494969 1497175
1494970 1499109
1494970 1499109
1494971 1494977
1494971 1494974
1494971 1494977
1494971 1494984
1494971 1494974
1494971 1494984
1494973 1494974
1494973 1494975
1494973 1494974
1494973 1494975
1494974 1494985
1494974 1494985
1494974 1494986
1494974 1494986
1494975 1494976
1494975 1494982
1494975 1494976
1494975 1494982
1494977 1494981
1494977 1494981
1494978 1494991
1494978 1494991
1494978 1494994
1494978 1494996
1494978 1494994
1494978 1494996
1494981 1494992
1494981 1494992
1494984 1494986
1494984 1494988
1494984 1494989
1494984 1494986
1494984 1494988
1494984 1494989
1494985 1494986
1494985 1495010
1494985 1494986
1494985 1495010
1494986 1494987
1494986 1494987
1494987 1495012
1494987 1495013
1494987 1495012
1494987 1495013
1494988 1494992
1494988 1494989
1494988 1494992
1494988 1495006
1494988 1494989
1494988 1495006
1494989 1495011
1494989 1495012
1494989 1495012
1494989 1495011
1494991 1494993
1494991 1494994
1494991 1494993
1494991 1494994
1494992 1494995
1494992 1494995
1494993 1494997
1494993 1494997
1494994 1494996
1494994 1494997
1494994 1494996
1494994 1494997
1494995 1495006
1494995 1494999
1494995 1495006
1494995 1494999
1494996 1494998
1494996 1494999
1494996 1494999
1494996 1494998
1494997 1495001
1494997 1494998
1494997 1495001
1494997 1494998
1494998 1494999
1494998 1494999
1494998 1495005
1494998 1495005
1494999 1495005
1494999 1495005
1495000 1495002
1495000 1495003
1495000 1495002
1495000 1495003
1495001 1495002
1495001 1495002
1495001 1495005
1495001 1495005
1495002 1495003
1495002 1495003
1495003 1495004
1495003 1495005
1495003 1495004
1495003 1495005
1495004 1495009
1495004 1495023
1495004 1495009
1495004 1495023
1495006 1495007
1495006 1495011
1495006 1495011
1495006 1495007
1495007 1495009
1495007 1495008
1495007 1495009
1495007 1495008
1495009 1495024
1495009 1495043
1495009 1495024
1495009 1495043
1495010 1495070
1495010 1495070
1495011 1495014
1495011 1495015
1495011 1495015
1495011 1495014
1495012 1495013
1495012 1495014
1495012 1495013
1495012 1495014
1495014 1495016
1495014 1495017
1495014 1495016
1495014 1495017
1495015 1495017
1495015 1495125
1495015 1495126
1495015 1495017
1495015 1495125
1495015 1495126
1495017 1495108
1495017 1495114
1495017 1495108
1495017 1495114
1495018 1495020
1495018 1495021
1495018 1495022
1495018 1495020
1495018 1495021
1495018 1495022
1495019 1495021
1495019 1495032
1495019 1495032
1495019 1495021
1495021 1495025
1495021 1495039
1495021 1495025
1495021 1495039
1495022 1495023
1495022 1495023
1495022 1495025
1495022 1495025
1495023 1495024
1495023 1495027
1495023 1495024
1495023 1495027
1495024 1495028
1495024 1495028
1495025 1495026
1495025 1495027
1495025 1495027
1495025 1495026
1495026 1495031
1495026 1495041
1495026 1801097
1495026 1495031
1495026 1495041
1495026 1801097
1495027 1495030
1495027 1495031
1495027 1495031
1495027 1495030
1495028 1495029
1495028 1495042
1495028 1495029
1495028 1495042
1495029 1495030
1495029 1495030
1495030 1495047
1495030 1495047
1495031 1495047
1495031 1801111
1495031 1495047
1495031 1801111
1495032 1495033
1495032 1495034
1495032 1495036
1495032 1495033
1495032 1495036
1495032 1495034
1495033 1495036
1495033 1495037
1495033 1495036
1495033 1495037
1495034 1495039
1495034 1495035
1495034 1495039
1495034 1495035
1495036 1495038
1495036 1495038
1495036 1495040
1495036 1801092
1495036 1495040
1495036 1801092
1495039 1495040
1495039 1495041
1495039 1495041
1495039 1495040
1495040 1495041
1495040 1495041
1495040 1801084
1495040 1801084
1495041 1801097
1495041 1801097
1495043 1495047
1495043 1495125
1495043 1801113
1495043 1495125
1495043 1495047
1495043 1801113
1495113 1495114
1495113 1495114
1495114 1495126
1495114 1495126
1495114 1801134
1495114 1801134
1495125 1495126
1495125 1801113
1495125 1495126
1495125 1801113
1495126 1801121
1495126 1801121
33398 33399
33398 33399
33401 34846
33401 34846
36769 36770
36769 36770
1495723 1498693
1495723 1498730
1495723 1498693
1495723 1498730
36825 36826
36825 36826
36835 42707
36835 42707
36839 36840
36839 36840
36839 42710
36839 42710
36856 36857
36856 39610
36856 36857
36856 39610
36868 36869
36868 36873
36868 36869
36868 36873
36877 36878
36877 36884
36877 36878
36877 36884
36878 36879
36878 36879
36878 36881
36878 36881
36881 36882
36881 36884
36881 36882
36881 36884
36890 36891
36890 36891
36907 39812
36907 39812
1496855 1498550
1496855 1498550
1496856 1496863
1496856 1496863
1496859 1499254
1496859 1499935
1496859 1499254
1496859 1499935
36997 36998
36997 36998
36997 37006
36997 37006
1496863 1499083
1496863 1499083
37011 37027
37011 37027
1600109 1600111
1600109 1600111
1496952 1498183
1496952 1499915
1496952 1498183
1496952 1499915
37017 37018
37017 37019
37017 37018
37017 37019
1496987 1496988
1496987 1496990
1496987 1497383
1496987 1496988
1496987 1496990
1496987 1497383
1600117 1600118
1600117 1600122
1600117 1600118
1600117 1600122
1600118 1600121
1600118 1600121
37030 37031
37030 37031
37031 37033
37031 1494587
37031 37033
37031 1494587
37032 37033
37032 37033
37033 41659
37033 41659
37036 37037
37036 37037
1497172 1497173
1497172 1498847
1497172 1497173
1497172 1498847
1497175 1497202
1497175 1497202
1497215 1500013
1497215 1500041
1497215 1500013
1497215 1500041
1497216 1498097
1497216 1500076
1497216 1498097
1497216 1500076
1497217 1497218
1497217 1500160
1497217 1500160
1497217 1497218
1497218 1499547
1497218 1499547
1497218 1500087
1497218 1500087
1497222 1498509
1497222 1499998
1497222 1498509
1497222 1499998
1497224 1497225
1497224 1497225
1497226 1497232
1497226 1497227
1497226 1497232
1497226 1497237
1497226 1497227
1497226 1497237
1497228 1497229
1497228 1498548
1497228 1497229
1497228 1498548
1497230 1498911
1497230 1498916
1497230 1498917
1497230 1498911
1497230 1498916
1497230 1498917
1497232 1497233
1497232 1497233
1497233 1497237
1497233 1497237
1497234 1499079
1497234 1499079
1497237 1497238
1497237 1497238
1497374 1500073
1497374 1500073
1497383 1497384
1497383 1498803
1497383 1497384
1497383 1498803
1497396 1499113
1497396 1499113
37107 37108
37107 39937
37107 39937
37107 37108
37108 39936
37108 39936
37111 37116
37111 37116
37112 37113
37112 37113
37113 37114
37113 37114
37114 37115
37114 37115
37115 37116
37115 37116
37116 39937
37116 37138
37116 37138
37116 39937
37123 37124
37123 40446
37123 37124
37123 40446
37124 37125
37124 37125
1497563 1499109
1497563 1497564
1497563 1499109
1497563 1499110
1497563 1497564
1497563 1499110
1497564 1499265
1497564 1499268
1497564 1499265
1497564 1499268
37140 37157
37140 37157
1497586 1499449
1497586 1499449
1497586 1499570
1497586 1499570
1497587 1499449
1497587 1497588
1497587 1499449
1497587 1499990
1497587 1497588
1497587 1499990
1497588 1499962
1497588 1499963
1497588 1499962
1497588 1499963
37143 37144
37143 37144
37144 37145
37144 40857
37144 37145
37144 40857
37145 37146
37145 37146
37145 40857
37145 40857
37146 37147
37146 40875
37146 37147
37146 40875
37147 37148
37147 39609
37147 37148
37147 39609
37148 37149
37148 37150
37148 37149
37148 37150
1497640 1497643
1497640 1497642
1497640 1497643
1497640 1497642
1497642 1497644
1497642 1497645
1497642 1497644
1497642 1497645
1497643 1498763
1497643 1498765
1497643 1498763
1497643 1498765
1497644 1497646
1497644 1497646
1497644 1497647
1497644 1497647
1497646 1497648
1497646 1497648
37161 37162
37161 37163
37161 37164
37161 37162
37161 37163
37161 37164
37162 37170
37162 40448
37162 37170
37162 40448
37164 37171
37164 37165
37164 37171
37164 37165
37165 37166
37165 37166
37166 37167
37166 37167
37167 37168
37167 37169
37167 37168
37167 37169
37170 38737
37170 38737
37175 37176
37175 37176
37176 37177
37176 37177
37179 40561
37179 40561
1497778 1498551
1497778 1498551
37180 37181
37180 37181
1497783 1497785
1497783 1497785
1497783 1497786
1497783 1497786
1497785 1497786
1497785 1497786
37182 37183
37182 37183
1497792 1497793
1497792 1497794
1497792 1497793
1497792 1497794
1497795 1497796
1497795 1498495
1497795 1497796
1497795 1498495
37183 42791
37183 42791
1497798 1497799
1497798 1497799
1497797 1497798
1497797 1497798
1497797 1497799
1497797 1497804
1497797 1497799
1497797 1497804
1497799 1497800
1497799 1497800
1497801 1497802
1497801 1497802
1497801 1497804
1497801 1497804
1497803 1497818
1497803 1497871
1497803 1497818
1497803 1497871
37184 37185
37184 42201
37184 42212
37184 42212
37184 37185
37184 42201
1497804 1497805
1497804 1497805
1497809 1497810
1497809 1497810
1497811 1497812
1497811 1497812
1497813 1499547
1497813 1499547
1497814 1497815
1497814 1497816
1497814 1497816
1497814 1497815
1497818 1497819
1497818 1497819
1497819 1498602
1497819 1498602
1497976 1498466
1497976 1498466
1498097 1498098
1498097 1498098
1498183 1498184
1498183 1499916
1498183 1498184
1498183 1499916
1498184 1499254
1498184 1499254
1498184 1499919
1498184 1499919
1498466 1499866
1498466 1499866
1498509 1500054
1498509 1500060
1498509 1500054
1498509 1500060
1498547 1498549
1498547 1498548
1498547 1498549
1498547 1498548
1498548 1498990
1498548 1498990
1498550 1499925
1498550 1499925
1498697 1498698
1498697 1498797
1498697 1499157
1498697 1498698
1498697 1498797
1498697 1499157
1498698 1498810
1498698 1498811
1498698 1498810
1498698 1498811
1498733 1498735
1498733 1498737
1498733 1498735
1498733 1498737
1498749 1498761
1498749 1498772
1498749 1498761
1498749 1498772
1498750 1498754
1498750 1498754
1498751 1498752
1498751 1498752
1498752 1498754
1498752 1498753
1498752 1498754
1498752 1498753
1498754 1498755
1498754 1498758
1498754 1498755
1498754 1498758
1498756 1498758
1498756 1498758
1498758 1498759
1498758 1498759
1498761 1498795
1498761 1498762
1498761 1498795
1498761 1498762
1498762 1498796
1498762 1498797
1498762 1498796
1498762 1498797
1498765 1498766
1498765 1498782
1498765 1498784
1498765 1498766
1498765 1498782
1498765 1498784
1498766 1498767
1498766 1498769
1498766 1498767
1498766 1498769
1498767 1498772
1498767 1498772
1498767 1498776
1498767 1498776
1498768 1498769
1498768 1498770
1498768 1498771
1498768 1498769
1498768 1498770
1498768 1498771
1498769 1498776
1498769 1498776
1498771 1498779
1498771 1498779
1498772 1498774
1498772 1498775
1498772 1498774
1498772 1498775
1498774 1498777
1498774 1498778
1498774 1498777
1498774 1498778
1498775 1498784
1498775 1498783
1498775 1498784
1498775 1498783
1498776 1498779
1498776 1498779
1498777 1498779
1498777 1498779
1498777 1498780
1498777 1498780
1498779 1498781
1498779 1498781
1498784 1498785
1498784 1498785
1498785 1498786
1498785 1498787
1498785 1498786
1498785 1498787
1498787 1498790
1498787 1498791
1498787 1498790
1498787 1498791
1498791 1498793
1498791 1498792
1498791 1498793
1498791 1498792
1498793 1498794
1498793 1498794
1498795 1498801
1498795 1498801
1498796 1499984
1498796 1499984
1498797 1498798
1498797 1498809
1498797 1498798
1498797 1498809
1498798 1498799
1498798 1498800
1498798 1498799
1498798 1498800
1498799 1498811
1498799 1498811
1498799 1498812
1498799 1498812
1498800 1498801
1498800 1498801
1498800 1498808
1498800 1498808
1498801 1498803
1498801 1498802
1498801 1498803
1498801 1498802
1498803 1498806
1498803 1498806
1498804 1498812
1498804 1498806
1498804 1498805
1498804 1498806
1498804 1498812
1498804 1498805
1498806 1498807
1498806 1498807
1498812 1498813
1498812 1498813
1498822 1498825
1498822 1498825
1498823 1499113
1498823 1499113
1498824 1499114
1498824 1499114
1498825 1498827
1498825 1498828
1498825 1498827
1498825 1498828
1498830 1498831
1498830 1498831
1498830 1498835
1498830 1498888
1498830 1498835
1498830 1498888
1498831 1498915
1498831 1498915
1498832 1498833
1498832 1499577
1498832 1498833
1498832 1498848
1498832 1499577
1498832 1498848
1498833 1498847
1498833 1498847
1498834 1498835
1498834 1498871
1498834 1498835
1498834 1498871
1498835 1498836
1498835 1498836
1498836 1498839
1498836 1498840
1498836 1498839
1498836 1498840
1498837 1498838
1498837 1498843
1498837 1498838
1498837 1498843
1498838 1498842
1498838 1498842
1498839 1498843
1498839 1498844
1498839 1498843
1498839 1498844
1498840 1498841
1498840 1498841
1498841 1498842
1498841 1498842
1498842 1498845
1498842 1498845
1498843 1498845
1498843 1498845
1498845 1498846
1498845 1498846
1498847 1498866
1498847 1498867
1498847 1498866
1498847 1498867
1498848 1498849
1498848 1498851
1498848 1499584
1498848 1498849
1498848 1498851
1498848 1499584
1498849 1498850
1498849 1498850
1498851 1498855
1498851 1498856
1498851 1498855
1498851 1498856
1498852 1498853
1498852 1498854
1498852 1498858
1498852 1498853
1498852 1498854
1498852 1498858
1498853 1498857
1498853 1498857
1498855 1498857
1498855 1498858
1498855 1498859
1498855 1498858
1498855 1498857
1498855 1498859
1498858 1498860
1498858 1498860
1498860 1498861
1498860 1498862
1498860 1498861
1498860 1498862
1498861 1498863
1498861 1498863
1498863 1498864
1498863 1498865
1498863 1498864
1498863 1498865
1498864 1498866
1498864 1498866
1498866 1498868
1498866 1498868
1498868 1498869
1498868 1498870
1498868 1498869
1498868 1498870
1498870 1498876
1498870 1498876
1498871 1498872
1498871 1498873
1498871 1498879
1498871 1498872
1498871 1498873
1498871 1498879
1498873 1498875
1498873 1498875
1498875 1498876
1498875 1498876
1498875 1498878
1498875 1498878
1498876 1498877
1498876 1498877
1498878 1498880
1498878 1498882
1498878 1498880
1498878 1498882
1498879 1498884
1498879 1498885
1498879 1498884
1498879 1498885
1498880 1498881
1498880 1498883
1498880 1498881
1498880 1498883
1498883 1498885
1498883 1498885
1498883 1498886
1498883 1498886
1498885 1498887
1498885 1498887
1498888 1498890
1498888 1498911
1498888 1498889
1498888 1498890
1498888 1498911
1498888 1498889
1498889 1498892
1498889 1498892
1498889 1498899
1498889 1498901
1498889 1498899
1498889 1498901
1498890 1498901
1498890 1498907
1498890 1498901
1498890 1498907
1498891 1498893
1498891 1498895
1498891 1498893
1498891 1498895
1498892 1498893
1498892 1498894
1498892 1498893
1498892 1498894
1498893 1498902
1498893 1498903
1498893 1498902
1498893 1498903
1498894 1498899
1498894 1498899
1498894 1498900
1498894 1498900
1498895 1498896
1498895 1498904
1498895 1498905
1498895 1498896
1498895 1498904
1498895 1498905
1498896 1498897
1498896 1498898
1498896 1498897
1498896 1498898
1498898 1498908
1498898 1498909
1498898 1498908
1498898 1498909
1498901 1498906
1498901 1498906
1498906 1498908
1498906 1498908
1498906 1498910
1498906 1498910
1498907 1498911
1498907 1498911
1498907 1498913
1498907 1498921
1498907 1498913
1498907 1498921
1498911 1498912
1498911 1498912
1498912 1498915
1498912 1498914
1498912 1498915
1498912 1498914
1498913 1498919
1498913 1498926
1498913 1498927
1498913 1498919
1498913 1498926
1498913 1498927
1498915 1498916
1498915 1498916
1498917 1498922
1498917 1498923
1498917 1498924
1498917 1498922
1498917 1498923
1498917 1498924
1498918 1498919
1498918 1498922
1498918 1498919
1498918 1498922
1498919 1498920
1498919 1498920
1498922 1498925
1498922 1498925
1498928 1498930
1498928 1498929
1498928 1498930
1498928 1498932
1498928 1498934
1498928 1498929
1498928 1498932
1498928 1498934
1498929 1498939
1498929 1498939
1498929 1498940
1498929 1498940
1498930 1498992
1498930 1498994
1498930 1498992
1498930 1498994
1498931 1498934
1498931 1498935
1498931 1498936
1498931 1498934
1498931 1498935
1498931 1498936
1498932 1498964
1498932 1498967
1498932 1498967
1498932 1498964
1498933 1498937
1498933 1498941
1498933 1498937
1498933 1498941
1498934 1498936
1498934 1498944
1498934 1498936
1498934 1498944
1498935 1498944
1498935 1498947
1498935 1498948
1498935 1498944
1498935 1498947
1498935 1498948
1498936 1498938
1498936 1498938
1498937 1498938
1498937 1498938
1498938 1498940
1498938 1498940
1498938 1498943
1498938 1498943
1498939 1498959
1498939 1498959
1498940 1498942
1498940 1498942
1498944 1498945
1498944 1498946
1498944 1498945
1498944 1498946
1498945 1498949
1498945 1498951
1498945 1498949
1498945 1498951
1498946 1498953
1498946 1498955
1498946 1498953
1498946 1498955
1498947 1498951
1498947 1498951
1498948 1498955
1498948 1498955
1498959 1498960
1498959 1498971
1498959 1498960
1498959 1498971
1498960 1498961
1498960 1498962
1498960 1498961
1498960 1498962
1498962 1498977
1498962 1498978
1498962 1498977
1498962 1498978
1498963 1498964
1498963 1498964
1498963 1498981
1498963 1498988
1498963 1498989
1498963 1498981
1498963 1498988
1498963 1498989
1498964 1498983
1498964 1498984
1498964 1498983
1498964 1498984
1498965 1498967
1498965 1498966
1498965 1498967
1498965 1498969
1498965 1498966
1498965 1498969
1498966 1498981
1498966 1498981
1498966 1498985
1498966 1498985
1498967 1498968
1498967 1498968
1498969 1498977
1498969 1498977
1498971 1498972
1498971 1498973
1498971 1498972
1498971 1498973
1498973 1498974
1498973 1498974
1498984 1498985
1498984 1498986
1498984 1498985
1498984 1498986
1498990 1499018
1498990 1499019
1498990 1499018
1498990 1499019
1498991 1498992
1498991 1498992
1498991 1499008
1498991 1499008
1498992 1498993
1498992 1498993
1498993 1498995
1498993 1498995
1498994 1499001
1498994 1499005
1498994 1499001
1498994 1499005
1498995 1499009
1498995 1499011
1498995 1499009
1498995 1499011
1498996 1498997
1498996 1498997
1498996 1498998
1498996 1498999
1498996 1498998
1498996 1498999
1498997 1499008
1498997 1499008
1498998 1499009
1498998 1499009
1498999 1499031
1498999 1499000
1498999 1499013
1498999 1499031
1498999 1499000
1498999 1499013
1499001 1499004
1499001 1499004
1499002 1499003
1499002 1499004
1499002 1499004
1499002 1499003
1499003 1499005
1499003 1499005
1499003 1499006
1499003 1499006
1499004 1499007
1499004 1499007
1499008 1499012
1499008 1499012
1499009 1499010
1499009 1499010
1499013 1499014
1499013 1499015
1499013 1499014
1499013 1499015
1499015 1499016
1499015 1499017
1499015 1499030
1499015 1499016
1499015 1499017
1499015 1499030
1499017 1499020
1499017 1499027
1499017 1499020
1499017 1499027
1499018 1499022
1499018 1499023
1499018 1499022
1499018 1499023
1499020 1499021
1499020 1499022
1499020 1499022
1499020 1499021
1499021 1499028
1499021 1499032
1499021 1499028
1499021 1499032
1499022 1499039
1499022 1499039
1499023 1499024
1499023 1499024
1499024 1499025
1499024 1499038
1499024 1499025
1499024 1499038
1499025 1499028
1499025 1499026
1499025 1499028
1499025 1499026
1499028 1499029
1499028 1499029
1499029 1499030
1499029 1499030
1499030 1499034
1499030 1499034
1499079 1499082
1499079 1499082
1499081 1499084
1499081 1499084
1499082 1499083
1499082 1499083
1499082 1499084
1499082 1499084
1499084 1499086
1499084 1499086
1499101 1499102
1499101 1499103
1499101 1499102
1499101 1499103
1499103 1499104
1499103 1499107
1499103 1499108
1499103 1499104
1499103 1499107
1499103 1499108
1499104 1499105
1499104 1499106
1499104 1499105
1499104 1499106
1499106 1499109
1499106 1499110
1499106 1499109
1499106 1499110
1499106 1499111
1499106 1499111
1499109 1499112
1499109 1499112
1499113 1499114
1499113 1499114
1499116 1499117
1499116 1499117
1499117 1499118
1499117 1499119
1499117 1499118
1499117 1499119
1499160 1499161
1499160 1499164
1499160 1499164
1499160 1499161
1499161 1499162
1499161 1499163
1499161 1499162
1499161 1499163
1499162 1499190
1499162 1499190
1499162 1499191
1499162 1499191
1499164 1499165
1499164 1499165
1499190 1499192
1499190 1499192
1499209 1499219
1499209 1499221
1499209 1499222
1499209 1499219
1499209 1499221
1499209 1499222
1499210 1499211
1499210 1499212
1499210 1499220
1499210 1499211
1499210 1499212
1499210 1499220
1499212 1499213
1499212 1499214
1499212 1499213
1499212 1499214
1499220 1499222
1499220 1499222
1499220 1499223
1499220 1499224
1499220 1499223
1499220 1499224
1499222 1499225
1499222 1499225
1499265 1499266
1499265 1499268
1499265 1499268
1499265 1499266
1499268 1499511
1499268 1499511
1499571 1499895
1499571 1499899
1499571 1499895
1499571 1499899
1499572 1499573
1499572 1499573
1499573 1500150
1499573 1499899
1499573 1500150
1499573 1499899
1499577 1499585
1499577 1499585
1499581 1499582
1499581 1499582
1499582 1499583
1499582 1499583
1499584 1499585
1499584 1499586
1499584 1499585
1499584 1499586
1499585 1499587
1499585 1499588
1499585 1499588
1499585 1499587
1499586 1499587
1499586 1499587
1499587 1499589
1499587 1499589
1499889 1499897
1499889 1499897
1499893 1499897
1499893 1499897
1499897 1499899
1499897 1499899
1499916 1499917
1499916 1499918
1499916 1499917
1499916 1499918
1499921 1499922
1499921 1499924
1499921 1499945
1499921 1499922
1499921 1499924
1499921 1499945
1499922 1499923
1499922 1499923
1499925 1499926
1499925 1499926
1499926 1499927
1499926 1499933
1499926 1499927
1499926 1499933
1499927 1499928
1499927 1499934
1499927 1499928
1499927 1499934
1499928 1499929
1499928 1499932
1499928 1499929
1499928 1499932
1499929 1499930
1499929 1499931
1499929 1499930
1499929 1499931
1499937 1499955
1499937 1499956
1499937 1499955
1499937 1499956
1499945 1499946
1499945 1499950
1499945 1499946
1499945 1499950
1499958 1499960
1499958 1499960
1499961 1499963
1499961 1499964
1499961 1499963
1499961 1499964
1499963 1499965
1499963 1499965
1499965 1499967
1499965 1499976
1499965 1499967
1499965 1499976
1499966 1500026
1499966 1500026
1499967 1499999
1499967 1500000
1499967 1499999
1499967 1500000
1499968 1499969
1499968 1499973
1499968 1499982
1499968 1499991
1499968 1499969
1499968 1499973
1499968 1499982
1499968 1499991
1499969 1499985
1499969 1499986
1499969 1499986
1499969 1499985
1499970 1499971
1499970 1499972
1499970 1499994
1499970 1499971
1499970 1499972
1499970 1499994
1499971 1499973
1499971 1499973
1499971 1499975
1499971 1499975
1499973 1499974
1499973 1499974
1499976 1499977
1499976 1499979
1499976 1499977
1499976 1499979
1499978 1499986
1499978 1499979
1499978 1499979
1499978 1499980
1499978 1499986
1499978 1499980
1499979 1499981
1499979 1499981
1499982 1499983
1499982 1499987
1499982 1499983
1499982 1499987
1499983 1499984
1499983 1499985
1499983 1499984
1499983 1499985
1499984 1499988
1499984 1499989
1499984 1499988
1499984 1499989
1499986 1499993
1499986 1499993
1499990 1499995
1499990 1499996
1499990 1499995
1499990 1499996
1499994 1499996
1499994 1500001
1499994 1499996
1499994 1500001
1499996 1500004
1499996 1500004
1499997 1500005
1499997 1499998
1499997 1499998
1499997 1500005
1499997 1500017
1499997 1500017
1499998 1500007
1499998 1500008
1499998 1500008
1499998 1500007
1499999 1500001
1499999 1500003
1499999 1500001
1499999 1500003
1500001 1500002
1500001 1500002
1500005 1500006
1500005 1500006
1500006 1500007
1500006 1500007
1500007 1500009
1500007 1500009
1500013 1500025
1500013 1500025
1500020 1500021
1500020 1500022
1500020 1500021
1500020 1500022
1500025 1500026
1500025 1500026
1500026 1500027
1500026 1500027
1500027 1500028
1500027 1500028
1500028 1500030
1500028 1500030
1500054 1500055
1500054 1500058
1500054 1500055
1500054 1500058
1500056 1500058
1500056 1500060
1500056 1500060
1500056 1500058
1500073 1500076
1500073 1500076
1500087 1500088
1500087 1500095
1500087 1500098
1500087 1500088
1500087 1500095
1500087 1500098
1500088 1500090
1500088 1500091
1500088 1500097
1500088 1500090
1500088 1500091
1500088 1500097
1500091 1500094
1500091 1500094
1500095 1500096
1500095 1500100
1500095 1500096
1500095 1500100
1500098 1500099
1500098 1500102
1500098 1500099
1500098 1500102
1500100 1500101
1500100 1500102
1500100 1500102
1500100 1500101
1500102 1500103
1500102 1500111
1500102 1500103
1500102 1500111
1500103 1500106
1500103 1500107
1500103 1500106
1500103 1500107
1500104 1500111
1500104 1500105
1500104 1500108
1500104 1500111
1500104 1500105
1500104 1500108
1500107 1500108
1500107 1500108
1500108 1500109
1500108 1500109
1500111 1500112
1500111 1500112
37911 37912
37911 37912
37912 37913
37912 37913
142120 144855
142120 144855
1602040 1602041
1602040 1602042
1602040 1602041
1602040 1602042
1602042 1602043
1602042 1602045
1602042 1602043
1602042 1602045
1602050 1602051
1602050 1602052
1602050 1602085
1602050 1610713
1602050 1602051
1602050 1602052
1602050 1602085
1602050 1610713
1602051 1602052
1602051 1602060
1602051 1602079
1602051 1602052
1602051 1602060
1602051 1602079
1602052 1602058
1602052 1602058
1602055 1602056
1602055 1602056
1602055 1610388
1602055 1610388
1602056 1602076
1602056 1602076
1602057 1602058
1602057 1602058
1602057 1602059
1602057 1602059
1602058 1602060
1602058 1602060
1602059 1610709
1602059 1610710
1602059 1610709
1602059 1610710
1602060 1602079
1602060 1602079
1602061 1602062
1602061 1602063
1602061 1602131
1602061 1602062
1602061 1602063
1602061 1602131
1602062 1602063
1602062 1602132
1602062 1602134
1602062 1602063
1602062 1602132
1602062 1602134
1602063 1602073
1602063 1602073
1602064 1602065
1602064 1602072
1602064 1602135
1602064 1602065
1602064 1602072
1602064 1602135
1602065 1602066
1602065 1602074
1602065 1602066
1602065 1602074
1602066 1610387
1602066 1602067
1602066 1610387
1602066 1794459
1602066 1602067
1602066 1794459
1602067 1602068
1602067 1602068
1602068 1602069
1602068 1602069
1602069 1602070
1602069 1602070
1602070 1602071
1602070 1602071
1602071 1602072
1602071 1602072
1602080 1602081
1602080 1602084
1602080 1602081
1602080 1602084
1602081 1602082
1602081 1602082
1602082 1602083
1602082 1602083
1602082 1610383
1602082 1610383
1602083 1602084
1602083 1602084
1602085 1602143
1602085 1602086
1602085 1602143
1602085 1602086
1602086 1602087
1602086 1602087
1602086 1602127
1602086 1602127
1602092 1602093
1602092 1602094
1602092 1602138
1602092 1602093
1602092 1602094
1602092 1602138
1602093 1602094
1602093 1602102
1602093 1602094
1602093 1602102
1602094 1602101
1602094 1602101
1602102 1602103
1602102 1602103
1602109 1602110
1602109 1602110
1602111 1602112
1602111 1602112
1602116 1602117
1602116 1602118
1602116 1602119
1602116 1602117
1602116 1602118
1602116 1602119
1602121 1602122
1602121 1602123
1602121 1602122
1602121 1602123
1602123 1602127
1602123 1602124
1602123 1602127
1602123 1602124
1602124 1602125
1602124 1602126
1602124 1602125
1602124 1602126
1602127 1602128
1602127 1602128
1602128 1602129
1602128 1602130
1602128 1602129
1602128 1602130
1602131 1602132
1602131 1602132
1602132 1602133
1602132 1602133
1602135 1602136
1602135 1602136
1602136 1602137
1602136 1602137
1602137 1602138
1602137 1602138
1602147 1602148
1602147 1602148
1602148 1602150
1602148 1602154
1602148 1602155
1602148 1602160
1602148 1602150
1602148 1602154
1602148 1602155
1602148 1602160
1602149 1602150
1602149 1602157
1602149 1602150
1602149 1602157
1602150 1602156
1602150 1602156
1602151 1602152
1602151 1602153
1602151 1602152
1602151 1602153
1602152 1602153
1602152 1602166
1602152 1602153
1602152 1602166
1602153 1602154
1602153 1602154
1602154 1602159
1602154 1602159
1602166 1602177
1602166 1602177
1602167 1602168
1602167 1602168
39379 39380
39379 39380
31851 31852
31851 31853
31851 31852
31851 31853
34215 39817
34215 39817
1604080 1607713
1604080 1607713
1604081 1604082
1604081 1604197
1604081 1604082
1604081 1604197
1604082 1604202
1604082 1604202
1604083 1604084
1604083 1604089
1604083 1604090
1604083 1604678
1604083 1604084
1604083 1604089
1604083 1604090
1604083 1604678
1604084 1604689
1604084 1604085
1604084 1604490
1604084 1604689
1604084 1604085
1604084 1604490
1604085 1604086
1604085 1604493
1604085 1604086
1604085 1604493
1604120 1604121
1604120 1604198
1604120 1604198
1604120 1604121
1604121 1604122
1604121 1604197
1604121 1604122
1604121 1604197
1604124 1604125
1604124 1604125
1604126 1604127
1604126 1604129
1604126 1604129
1604126 1604127
1604127 1604128
1604127 1604214
1604127 1604128
1604127 1604214
1604131 1604137
1604131 1604256
1604131 1604137
1604131 1604256
1604507 1604508
1604507 1604510
1604507 1604783
1604507 1604508
1604507 1604510
1604507 1604783
1604508 1604518
1604508 1611111
1604508 1604518
1604508 1611111
1604509 1604510
1604509 1604510
1604509 1604511
1604509 1604838
1604509 1604511
1604509 1604838
1604511 1604627
1604511 1604512
1604511 1604627
1604511 1604512
1604512 1604513
1604512 1604624
1604512 1604513
1604512 1604624
1604513 1604625
1604513 1604514
1604513 1604625
1604513 1604514
1604514 1604515
1604514 1604609
1604514 1604515
1604514 1604609
1604515 1604516
1604515 1604516
1604515 1604609
1604515 1604609
1604516 1604610
1604516 1604610
1604517 1604518
1604517 1606299
1604517 1609481
1604517 1606299
1604517 1604518
1604517 1609481
1604518 1604848
1604518 1604848
1604520 1604640
1604520 1604521
1604520 1604639
1604520 1604640
1604520 1604521
1604520 1604639
1604521 1604522
1604521 1604522
1604521 1604532
1604521 1604639
1604521 1604639
1604521 1604532
1604522 1604523
1604522 1604523
1604526 1604592
1604526 1604592
1604528 1604530
1604528 1604529
1604528 1604530
1604528 1604529
1604530 1604586
1604530 1604586
1604562 1604685
1604562 1604685
34346 34347
34346 34347
1604590 1604600
1604590 1604600
1604599 1604600
1604599 1604600
1604611 1604612
1604611 1604612
1604614 1604615
1604614 1604615
1604615 1604631
1604615 1604628
1604615 1604631
1604615 1604628
1604616 1604847
1604616 1604847
1604616 1607753
1604616 1607754
1604616 1610046
1604616 1607753
1604616 1607754
1604616 1610046
1604617 1604628
1604617 1604632
1604617 1604628
1604617 1604632
1604618 1604619
1604618 1604619
1604619 1604677
1604619 1604677
1604620 1604626
1604620 1604621
1604620 1604621
1604620 1604622
1604620 1604626
1604620 1604622
1604622 1604630
1604622 1604630
1604628 1604632
1604628 1604632
1604634 1604635
1604634 1604635
1604635 1604636
1604635 1604636
1604637 1604638
1604637 1610045
1604637 1604638
1604637 1610045
1604638 1604676
1604638 1604676
1604639 1604642
1604639 1604642
1604640 1604642
1604640 1604642
1604641 1604642
1604641 1604642
1604654 1604664
1604654 1604655
1604654 1604655
1604654 1604664
1604655 1604664
1604655 1604664
1604660 1604661
1604660 1604674
1604660 1604661
1604660 1604674
1604661 1604662
1604661 1604662
1604662 1604663
1604662 1604674
1604662 1604663
1604662 1604674
1604663 1604665
1604663 1604665
1604665 1604669
1604665 1604666
1604665 1604666
1604665 1604669
1604665 1604670
1604665 1604670
1604671 1604675
1604671 1604673
1604671 1604672
1604671 1604672
1604671 1604673
1604671 1604675
1604673 1604674
1604673 1604674
1604675 1604679
1604675 1604701
1604675 1604679
1604675 1604701
1604676 1604677
1604676 1604677
1604678 1604679
1604678 1604680
1604678 1604679
1604678 1604680
1604679 1604689
1604679 1604689
1604721 1604722
1604721 1604767
1604721 1604722
1604721 1604767
1604735 1604736
1604735 1604747
1604735 1604747
1604735 1604736
1604753 1604782
1604753 1604754
1604753 1604782
1604753 1604754
1604754 1604783
1604754 1604838
1604754 1604783
1604754 1604838
1604782 1604789
1604782 1604789
1604783 1604784
1604783 1604784
1604784 1604785
1604784 1604785
1604784 1604846
1604784 1604851
1604784 1604846
1604784 1604851
1604785 1604853
1604785 1604853
1604790 1610041
1604790 1610041
1604805 1604806
1604805 1604825
1604805 1604806
1604805 1604825
1604808 1604823
1604808 1604823
1604838 1604839
1604838 1604839
1604839 1604840
1604839 1604840
1604852 1604853
1604852 1604853
1604852 1610040
1604852 1610040
34404 34405
34404 34405
34404 38742
34404 38742
34432 34433
34432 42521
34432 34433
34432 42521
34434 34435
34434 34435
34434 34436
34434 34436
34444 39859
34444 39859
34452 34453
34452 42480
34452 34453
34452 42480
1606243 1606247
1606243 1607070
1606243 1607071
1606243 1610565
1606243 1606247
1606243 1607070
1606243 1607071
1606243 1610565
1606244 1606245
1606244 1607117
1606244 1606245
1606244 1607117
1606245 1606246
1606245 1606895
1606245 1607117
1606245 1607117
1606245 1606246
1606245 1606895
1606246 1606247
1606246 1606247
1606246 1606825
1606246 1606825
1606247 1606814
1606247 1609754
1606247 1606814
1606247 1609754
1606256 1606257
1606256 1606257
1606257 1607878
1606257 1607878
1606288 1607154
1606288 1606289
1606288 1607154
1606288 1606289
1606289 1606290
1606289 1607153
1606289 1606290
1606289 1607153
1606290 1606291
1606290 1607163
1606290 1606291
1606290 1607163
1606291 1606295
1606291 1606292
1606291 1606292
1606291 1606295
1606295 1607226
1606295 1607227
1606295 1607226
1606295 1607227
1606297 1606298
1606297 1606473
1606297 1607067
1606297 1606298
1606297 1607067
1606297 1606473
1606298 1607761
1606298 1607761
1606299 1606311
1606299 1610202
1606299 1606311
1606299 1610202
1606308 1606311
1606308 1606311
1606309 1606323
1606309 1606323
1606310 1607753
1606310 1606323
1606310 1607753
1606310 1606323
1606312 1606313
1606312 1606314
1606312 1606313
1606312 1606314
1606312 1606349
1606312 1606349
1606313 1606322
1606313 1606322
1606314 1609625
1606314 1609625
1606315 1606316
1606315 1606382
1606315 1609895
1606315 1606316
1606315 1606382
1606315 1609895
1606316 1606317
1606316 1606382
1606316 1606382
1606316 1606317
1606317 1606318
1606317 1609893
1606317 1606318
1606317 1609893
1606318 1606319
1606318 1609918
1606318 1606319
1606318 1609918
1606319 1606320
1606319 1608408
1606319 1606320
1606319 1608408
1606320 1606321
1606320 1606410
1606320 1606321
1606320 1606410
1606321 1606322
1606321 1606322
1606321 1609639
1606321 1609639
1606322 1606348
1606322 1606348
1606324 1606326
1606324 1606325
1606324 1606326
1606324 1606456
1606324 1606460
1606324 1606325
1606324 1606456
1606324 1606460
1606325 1606326
1606325 1606326
1606325 1609737
1606325 1609738
1606325 1609737
1606325 1609738
1606327 1606328
1606327 1606330
1606327 1606487
1606327 1606487
1606327 1606328
1606327 1606330
1606328 1606329
1606328 1606329
1606329 1606330
1606329 1606330
1606329 1606486
1606329 1606486
1606330 1606484
1606330 1606484
1606331 1606332
1606331 1606334
1606331 1609701
1606331 1606332
1606331 1606334
1606331 1609701
1606332 1606333
1606332 1606548
1606332 1606555
1606332 1606333
1606332 1606548
1606332 1606555
1606333 1606334
1606333 1606334
1606333 1606549
1606333 1606549
1606334 1606536
1606334 1606542
1606334 1606542
1606334 1606536
1606335 1607210
1606335 1606336
1606335 1606337
1606335 1607210
1606335 1606336
1606335 1606337
1606336 1607210
1606336 1606339
1606336 1606341
1606336 1607210
1606336 1606339
1606336 1606341
1606337 1606338
1606337 1606346
1606337 1606338
1606337 1606346
1606338 1606339
1606338 1606339
1606338 1606347
1606338 1606347
1606339 1606340
1606339 1607081
1606339 1606340
1606339 1607081
1606340 1606341
1606340 1606341
1606340 1607090
1606340 1607090
1606341 1609737
1606341 1609736
1606341 1609737
1606341 1609736
1606346 1606347
1606346 1606362
1606346 1606347
1606346 1606362
1606347 1606381
1606347 1606381
1606348 1609624
1606348 1606349
1606348 1606349
1606348 1609624
1606350 1606351
1606350 1606351
1606350 1606359
1606350 1606461
1606350 1606359
1606350 1606461
1606351 1606352
1606351 1606352
1606352 1606353
1606352 1606353
1606353 1606354
1606353 1606354
1606354 1606355
1606354 1606356
1606354 1606355
1606354 1606356
1606356 1608408
1606356 1606357
1606356 1608408
1606356 1606357
1606357 1606358
1606357 1606358
1606358 1606359
1606358 1606359
1606361 1606362
1606361 1606362
1606361 1606363
1606361 1607191
1606361 1606363
1606361 1607191
1606362 1607196
1606362 1607196
1606363 1606364
1606363 1606371
1606363 1606364
1606363 1606371
1606364 1606365
1606364 1606368
1606364 1606365
1606364 1606368
1606365 1606366
1606365 1606367
1606365 1606366
1606365 1606367
1606367 1606368
1606367 1606368
1606368 1606369
1606368 1606370
1606368 1606369
1606368 1606370
1606372 1606373
1606372 1607181
1606372 1606373
1606372 1607181
1606373 1606374
1606373 1607180
1606373 1606374
1606373 1607180
1606374 1606375
1606374 1606391
1606374 1606375
1606374 1606391
1606375 1606376
1606375 1606377
1606375 1606376
1606375 1606377
1606377 1606378
1606377 1606379
1606377 1606378
1606377 1606379
1606379 1606380
1606379 1606393
1606379 1607172
1606379 1606380
1606379 1606393
1606379 1607172
1606380 1606381
1606380 1606381
1606380 1607172
1606380 1607172
1606381 1607081
1606381 1607081
1606388 1606389
1606388 1606389
1606389 1608409
1606389 1611303
1606389 1606423
1606389 1608409
1606389 1611303
1606389 1606423
1606391 1606392
1606391 1607134
1606391 1607136
1606391 1606392
1606391 1607136
1606391 1607134
1606392 1606393
1606392 1606393
1606392 1607112
1606392 1607112
1606393 1607112
1606393 1607172
1606393 1607172
1606393 1607112
1606394 1606395
1606394 1606528
1606394 1606395
1606394 1606528
1606395 1607956
1606395 1607956
1606403 1606404
1606403 1606404
1606403 1609893
1606403 1609918
1606403 1609893
1606403 1609918
1606404 1606405
1606404 1606461
1606404 1606461
1606404 1606405
1606406 1606407
1606406 1606408
1606406 1609656
1606406 1606407
1606406 1606408
1606406 1609656
1606407 1606410
1606407 1606410
1606407 1608413
1606407 1608413
1606408 1606409
1606408 1609647
1606408 1606409
1606408 1609647
1606409 1606410
1606409 1606410
1606409 1609638
1606409 1609638
1606441 1606492
1606441 1606655
1606441 1606492
1606441 1606655
1606446 1606873
1606446 1606873
1606456 1606457
1606456 1610118
1606456 1606457
1606456 1610118
1606457 1606458
1606457 1606458
1606458 1606459
1606458 1606459
1606458 1606469
1606458 1606469
1606459 1606475
1606459 1606475
1606461 1610116
1606461 1610116
1606469 1606470
1606469 1606474
1606469 1607089
1606469 1606470
1606469 1606474
1606469 1607089
1606470 1606471
1606470 1607088
1606470 1606471
1606470 1607088
1606471 1606472
1606471 1606472
1606472 1606473
1606472 1607088
1606472 1606473
1606472 1607086
1606472 1607088
1606472 1607086
1606473 1607067
1606473 1606474
1606473 1607067
1606473 1606474
1606474 1606475
1606474 1606475
1606475 1606476
1606475 1606477
1606475 1606476
1606475 1606477
1606477 1606478
1606477 1607762
1606477 1606478
1606477 1607762
1606481 1606482
1606481 1606483
1606481 1606482
1606481 1606483
1606483 1606484
1606483 1606484
1606483 1606491
1606483 1606491
1606484 1606485
1606484 1606485
1606487 1607871
1606487 1607871
1606492 1606493
1606492 1606504
1606492 1606493
1606492 1606504
1606493 1606505
1606493 1606505
1606503 1606504
1606503 1606504
1606503 1606506
1606503 1606509
1606503 1608414
1606503 1606506
1606503 1606509
1606503 1608414
1606504 1606505
1606504 1606758
1606504 1606505
1606504 1606758
1606505 1606506
1606505 1606507
1606505 1606506
1606505 1606507
1606506 1606508
1606506 1606509
1606506 1606509
1606506 1606508
1606507 1606508
1606507 1606508
1606508 1606510
1606508 1606534
1606508 1606534
1606508 1606510
1606509 1606511
1606509 1606511
1606510 1606534
1606510 1606511
1606510 1606534
1606510 1606511
1606511 1606548
1606511 1606549
1606511 1606548
1606511 1606549
1606513 1606514
1606513 1606514
1606514 1606536
1606514 1606517
1606514 1606536
1606514 1606517
1606525 1606526
1606525 1608414
1606525 1608414
1606525 1606526
1606526 1606527
1606526 1606527
1606527 1606528
1606527 1606528
1606527 1608416
1606527 1608416
1606528 1609673
1606528 1609673
1606535 1606536
1606535 1606536
1606535 1606537
1606535 1606543
1606535 1606544
1606535 1606537
1606535 1606543
1606535 1606544
1606536 1609701
1606536 1609701
1606542 1606543
1606542 1606543
1606546 1606547
1606546 1609677
1606546 1606547
1606546 1609677
1606548 1606555
1606548 1606555
1606649 1606826
1606649 1606826
1606655 1606656
1606655 1606758
1606655 1606758
1606655 1606656
1606656 1606814
1606656 1606657
1606656 1606814
1606656 1606657
1606657 1606658
1606657 1606658
1792426 1792427
1792426 1792428
1792426 1792427
1792426 1792428
1792427 1792430
1792427 1792430
1792428 1792429
1792428 1792429
1792429 1794453
1792429 1794453
1792430 1792431
1792430 1792431
1792431 1792432
1792431 1792432
1792432 1792433
1792432 1792434
1792432 1792433
1792432 1792434
1792433 1792434
1792433 1792444
1792433 1811240
1792433 1792434
1792433 1792444
1792433 1811240
1792434 1792444
1792434 1792444
1792442 1792443
1792442 1792445
1792442 1792443
1792442 1792445
1792443 1794447
1792443 1811221
1792443 1794447
1792443 1811221
1792444 1794447
1792444 1794448
1792444 1794447
1792444 1794448
1792445 1792446
1792445 1792446
1792446 1792447
1792446 1792447
1792447 1792450
1792447 1792450
1792449 1792450
1792449 1792450
1792466 1792467
1792466 1794419
1792466 1794420
1792466 1792467
1792466 1794419
1792466 1794420
1792467 1811237
1792467 1811238
1792467 1811237
1792467 1811238
1792469 1794432
1792469 1794432
1606758 1606814
1606758 1606814
1606758 1609711
1606758 1609711
1792791 1809763
1792791 1809763
1606857 1606858
1606857 1606859
1606857 1606890
1606857 1606905
1606857 1606858
1606857 1606859
1606857 1606890
1606857 1606905
1606858 1606864
1606858 1606864
1606864 1606897
1606864 1606897
1606870 1606873
1606870 1606871
1606870 1606871
1606870 1606873
1606872 1606892
1606872 1606892
1606873 1606875
1606873 1606875
1606881 1606889
1606881 1606889
1606884 1606885
1606884 1606886
1606884 1606885
1606884 1606886
1606889 1606890
1606889 1606890
1606889 1606911
1606889 1606913
1606889 1606913
1606889 1606911
1606890 1606908
1606890 1606908
1606891 1606892
1606891 1606892
1606891 1606900
1606891 1607120
1606891 1606900
1606891 1607120
1606892 1606896
1606892 1606896
1606894 1606897
1606894 1606897
1606895 1606896
1606895 1607119
1606895 1606896
1606895 1607119
1606896 1607120
1606896 1607120
1606897 1606905
1606897 1606898
1606897 1606905
1606897 1606898
1606898 1606900
1606898 1606900
1606900 1606904
1606900 1610530
1606900 1606904
1606900 1610530
1606903 1606905
1606903 1606904
1606903 1606904
1606903 1606905
1606903 1606907
1606903 1606907
1606904 1607115
1606904 1607115
1606905 1606908
1606905 1606908
1606907 1607116
1606907 1610482
1606907 1607116
1606907 1610482
1606911 1606912
1606911 1606912
1606912 1606913
1606912 1606913
1606912 1606916
1606912 1606922
1606912 1606916
1606912 1606922
1606916 1606917
1606916 1606917
1606916 1606925
1606916 1606925
1606922 1606925
1606922 1606925
1606925 1607124
1606925 1607124
1607067 1607760
1607067 1607760
1607068 1607070
1607068 1607069
1607068 1607070
1607068 1607075
1607068 1607069
1607068 1607075
1607069 1607071
1607069 1607071
1607069 1608417
1607069 1608417
1607070 1610568
1607070 1610568
1607071 1609734
1607071 1609734
1607073 1607075
1607073 1607075
1607073 1607082
1607073 1607085
1607073 1607082
1607073 1607085
1607074 1607075
1607074 1607075
1607074 1610559
1607074 1610559
1607082 1607083
1607082 1607084
1607082 1607083
1607082 1607084
1607085 1607086
1607085 1608417
1607085 1607086
1607085 1608417
1607086 1607087
1607086 1607087
1607089 1607090
1607089 1610118
1607089 1607090
1607089 1610117
1607089 1610118
1607089 1610117
1607090 1610117
1607090 1610117
1607104 1607105
1607104 1607106
1607104 1607164
1607104 1607105
1607104 1607106
1607104 1607164
1607105 1607106
1607105 1607166
1607105 1607106
1607105 1607166
1607106 1607179
1607106 1607179
1607107 1607108
1607107 1610544
1607107 1610559
1607107 1607108
1607107 1610559
1607107 1610544
1607108 1607117
1607108 1610481
1607108 1607117
1607108 1610481
1607109 1607110
1607109 1607111
1607109 1607173
1607109 1607175
1607109 1607110
1607109 1607111
1607109 1607173
1607109 1607175
1607110 1607111
1607110 1607165
1607110 1607111
1607110 1607165
1607111 1607165
1607111 1607165
1607112 1607113
1607112 1607114
1607112 1607114
1607112 1607113
1607113 1607114
1607113 1610559
1607113 1607114
1607113 1610543
1607113 1610559
1607113 1610543
1607115 1607116
1607115 1607116
1607116 1610479
1607116 1610479
1607117 1607119
1607117 1607119
1607118 1607124
1607118 1607124
1607119 1610480
1607119 1610480
1607120 1610479
1607120 1610479
1607124 1607126
1607124 1607126
1607129 1607134
1607129 1607130
1607129 1607131
1607129 1607134
1607129 1607130
1607129 1607131
1607130 1607131
1607130 1607135
1607130 1607131
1607130 1607135
1794418 1794419
1794418 1794420
1794418 1794419
1794418 1794420
1794419 1794424
1794419 1794426
1794419 1794424
1794419 1794426
1794420 1794447
1794420 1794447
1607131 1610542
1607131 1610547
1607131 1610542
1607131 1610547
1794424 1794425
1794424 1794425
1794425 1794432
1794425 1794426
1794425 1794426
1794425 1794432
1794425 1794437
1794425 1794437
1794426 1794427
1794426 1794427
1794431 1794432
1794431 1794432
1794431 1794436
1794431 1794436
1794432 1794437
1794432 1794437
1794436 1794437
1794436 1794437
1607134 1607135
1607134 1607135
1794437 1794531
1794437 1794531
1607135 1607138
1607135 1610548
1607135 1607138
1607135 1610548
1794447 1794448
1794447 1794448
1794448 1794460
1794448 1811221
1794448 1794460
1794448 1811221
1607136 1607137
1607136 1607179
1607136 1607179
1607136 1607137
1794453 1794454
1794453 1800938
1794453 1794454
1794453 1800938
1794454 1794455
1794454 1794456
1794454 1800938
1794454 1800938
1794454 1794455
1794454 1794456
1607137 1607138
1607137 1607138
1607137 1610552
1607137 1610552
1794457 1794458
1794457 1809145
1794457 1794458
1794457 1809145
1794458 1794459
1794458 1794459
1794459 1809145
1794459 1809145
1607138 1610549
1607138 1610549
1794456 1794457
1794456 1810424
1794456 1794457
1794456 1810424
1607154 1607155
1607154 1607155
1794542 1801058
1794542 1801058
1607155 1607168
1607155 1607156
1607155 1607168
1607155 1607156
1607156 1607164
1607156 1607157
1607156 1607164
1607156 1607157
1607157 1607164
1607157 1607165
1607157 1607158
1607157 1607164
1607157 1607165
1607157 1607158
1607158 1607159
1607158 1607187
1607158 1607159
1607158 1607187
1607159 1607160
1607159 1607186
1607159 1607160
1607159 1607186
1607160 1607161
1607160 1607194
1607160 1607161
1607160 1607194
1607161 1607162
1607161 1607234
1607161 1607162
1607161 1607234
1607162 1607163
1607162 1607163
1607162 1607231
1607162 1607231
1607163 1607228
1607163 1607228
1607166 1607175
1607166 1607175
1607173 1607180
1607173 1607174
1607173 1607180
1607173 1607174
1607174 1607175
1607174 1607175
1607179 1610553
1607179 1610553
1607180 1607182
1607180 1607183
1607180 1607182
1607180 1607183
1607181 1607189
1607181 1607182
1607181 1607183
1607181 1607189
1607181 1607182
1607181 1607183
1607183 1607188
1607183 1607188
1607184 1607185
1607184 1607185
1607185 1607186
1607185 1607194
1607185 1607186
1607185 1607193
1607185 1607194
1607185 1607193
1607189 1607190
1607189 1607190
1607191 1607192
1607191 1607294
1607191 1607192
1607191 1607294
1607192 1607193
1607192 1607193
1607192 1607239
1607192 1607239
1607193 1607194
1607193 1607194
1607195 1607196
1607195 1607196
1607195 1607295
1607195 1607295
1607197 1607199
1607197 1610604
1607197 1607198
1607197 1607199
1607197 1610604
1607197 1607198
1607198 1607209
1607198 1610728
1607198 1610735
1607198 1607209
1607198 1610728
1607198 1610735
1607199 1610616
1607199 1612237
1607199 1610616
1607199 1612237
1607201 1607202
1607201 1607202
1607204 1607205
1607204 1607205
1607205 1612231
1607205 1612231
1607207 1607208
1607207 1607209
1607207 1607209
1607207 1607208
1607209 1610728
1607209 1610752
1607209 1610728
1607209 1610752
1607213 1607214
1607213 1609741
1607213 1607214
1607213 1609741
1607215 1607216
1607215 1607866
1607215 1609740
1607215 1607216
1607215 1609740
1607215 1607866
1607216 1609739
1607216 1609739
1607218 1607219
1607218 1607220
1607218 1607222
1607218 1607225
1607218 1607219
1607218 1607220
1607218 1607225
1607218 1607222
1607219 1607220
1607219 1607248
1607219 1607255
1607219 1607220
1607219 1607248
1607219 1607255
1607220 1607249
1607220 1607254
1607220 1607249
1607220 1607254
1607221 1607222
1607221 1607222
1607221 1607223
1607221 1607277
1607221 1607223
1607221 1607277
1607222 1607225
1607222 1607225
1607223 1607224
1607223 1607277
1607223 1607277
1607223 1607224
1607224 1607226
1607224 1607225
1607224 1607225
1607224 1607226
1607226 1612219
1607226 1612219
1607228 1607229
1607228 1607230
1607228 1607229
1607228 1607230
1607231 1607232
1607231 1607233
1607231 1607232
1607231 1607233
1607234 1607235
1607234 1607238
1607234 1607235
1607234 1607238
1607235 1607236
1607235 1607237
1607235 1607236
1607235 1607237
1607239 1607240
1607239 1607285
1607239 1607240
1607239 1607285
1607240 1607241
1607240 1607243
1607240 1607241
1607240 1607243
1607241 1607242
1607241 1607242
1607243 1607244
1607243 1607282
1607243 1607244
1607243 1607282
1607244 1607245
1607244 1607281
1607244 1607245
1607244 1607281
1607245 1607246
1607245 1607280
1607245 1607246
1607245 1607280
1607246 1607295
1607246 1607247
1607246 1607295
1607246 1607247
1607247 1607248
1607247 1607248
1607247 1610488
1607247 1610488
1607248 1607255
1607248 1607255
1607249 1607250
1607249 1607251
1607249 1607250
1607249 1607251
1607251 1607252
1607251 1607253
1607251 1607252
1607251 1607253
1607255 1610487
1607255 1610487
1607258 1607795
1607258 1607795
1607259 1610614
1607259 1612240
1607259 1610614
1607259 1612240
1607260 1607261
1607260 1607262
1607260 1607261
1607260 1607262
1607261 1610194
1607261 1612242
1607261 1612242
1607261 1610194
1607277 1610486
1607277 1610486
1607282 1607283
1607282 1607284
1607282 1607283
1607282 1607284
1607285 1607286
1607285 1607291
1607285 1607286
1607285 1607291
1607286 1607287
1607286 1607290
1607286 1607287
1607286 1607290
1607287 1607288
1607287 1607289
1607287 1607288
1607287 1607289
1607291 1607292
1607291 1607293
1607291 1607292
1607291 1607293
1607295 1607841
1607295 1607841
1607648 1611255
1607648 1609757
1607648 1611255
1607648 1612148
1607648 1609757
1607648 1612148
1607713 1607714
1607713 1607714
1607714 1608198
1607714 1608198
1607715 1607717
1607715 1608198
1607715 1608198
1607715 1607717
1607716 1607717
1607716 1607717
1607717 1609959
1607717 1609959
1607720 1608199
1607720 1608199
1607721 1607722
1607721 1607722
1607722 1607723
1607722 1607724
1607722 1608519
1607722 1607723
1607722 1607724
1607722 1608519
1607724 1607725
1607724 1609471
1607724 1607725
1607724 1609471
1607725 1607726
1607725 1608520
1607725 1607726
1607725 1608520
1607731 1607732
1607731 1610034
1607731 1610036
1607731 1610034
1607731 1607732
1607731 1610036
1607732 1607733
1607732 1607733
1607753 1610038
1607753 1607754
1607753 1610038
1607753 1607754
1607761 1607958
1607761 1607958
1607763 1610678
1607763 1607764
1607763 1610678
1607763 1607764
1607764 1610668
1607764 1610668
1607764 1610679
1607764 1610679
1607795 1607796
1607795 1607796
1607796 1610490
1607796 1610490
1607825 1607833
1607825 1607833
1607832 1607833
1607832 1607833
1607833 1608866
1607833 1608866
1607834 1607835
1607834 1607835
1607834 1610686
1607834 1610715
1607834 1610686
1607834 1610715
1607836 1607837
1607836 1610717
1607836 1607837
1607836 1610717
1607837 1610729
1607837 1610729
1607841 1610489
1607841 1610489
1607842 1607843
1607842 1607844
1607842 1607844
1607842 1607843
1607844 1607845
1607844 1610561
1607844 1607845
1607844 1610561
1607845 1607846
1607845 1607847
1607845 1607846
1607845 1607847
1607847 1607848
1607847 1610570
1607847 1607848
1607847 1610570
1607848 1607849
1607848 1607850
1607848 1607849
1607848 1607850
1607850 1609741
1607850 1607851
1607850 1609741
1607850 1607851
1607851 1607852
1607851 1607853
1607851 1607854
1607851 1607852
1607851 1607853
1607851 1607854
1607854 1607855
1607854 1607865
1607854 1607855
1607854 1607865
1607855 1607856
1607855 1607857
1607855 1607856
1607855 1607857
1607856 1607874
1607856 1607874
1607856 1607875
1607856 1607875
1607857 1607858
1607857 1607861
1607857 1607858
1607857 1607861
1607858 1607859
1607858 1607860
1607858 1607859
1607858 1607860
1607861 1607862
1607861 1607862
1607862 1607863
1607862 1607864
1607862 1607863
1607862 1607864
1607865 1609740
1607865 1607866
1607865 1607866
1607865 1609740
1607866 1607867
1607866 1607868
1607866 1607867
1607866 1607868
1607868 1607869
1607868 1607869
1607869 1607870
1607869 1607870
1607870 1607871
1607870 1607871
1607870 1609743
1607870 1609743
1607871 1607872
1607871 1607872
1607874 1607876
1607874 1607877
1607874 1607876
1607874 1607877
1607881 1607882
1607881 1607882
1607881 1610680
1607881 1610680
1607882 1607883
1607882 1607883
1607883 1607884
1607883 1607884
1607956 1607957
1607956 1607994
1607956 1607957
1607956 1607994
1607957 1607958
1607957 1607958
1607957 1607994
1607957 1607994
1607994 1609673
1607994 1609673
1608007 1610194
1608007 1610194
1608010 1608017
1608010 1608017
1608011 1608012
1608011 1608018
1608011 1608012
1608011 1608018
1608012 1608013
1608012 1608014
1608012 1608013
1608012 1608014
1608014 1608015
1608014 1608015
1608015 1608016
1608015 1608016
1608016 1610702
1608016 1608017
1608016 1608017
1608016 1610702
1608017 1610809
1608017 1610809
1608020 1608021
1608020 1608021
1608021 1610298
1608021 1608022
1608021 1610298
1608021 1608022
1608022 1611332
1608022 1611324
1608022 1611332
1608022 1611324
1477793 1477794
1477793 1478812
1477793 1477794
1477793 1478812
1477794 1478806
1477794 1478807
1477794 1478806
1477794 1478807
1608167 1608168
1608167 1608168
1608168 1609935
1608168 1609485
1608168 1609935
1608168 1609485
1608197 1608370
1608197 1608370
1608198 1609959
1608198 1609959
1477980 1477989
1477980 1477989
1477988 1477989
1477988 1477989
1477988 1477992
1477988 1478031
1477988 1477992
1477988 1478031
1477989 1478030
1477989 1478030
1477992 1478031
1477992 1497809
1477992 1478031
1477992 1497809
1478030 1478031
1478030 1478031
1478030 1494706
1478030 1494706
1608369 1608370
1608369 1608370
1608409 1609892
1608409 1609892
1608412 1608413
1608412 1608413
1608413 1609668
1608413 1609668
1608414 1608415
1608414 1609678
1608414 1608415
1608414 1609678
1608415 1609701
1608415 1608416
1608415 1608416
1608415 1609701
1608416 1609675
1608416 1609675
1800938 1810423
1800938 1810423
1800956 1801056
1800956 1801056
1801056 1801057
1801056 1809764
1801056 1801057
1801056 1809764
1801057 1809763
1801057 1801058
1801057 1801058
1801057 1809763
1801058 1811278
1801058 1811278
1801084 1801085
1801084 1801110
1801084 1801170
1801084 1801085
1801084 1801110
1801084 1801170
1801085 1801086
1801085 1801108
1801085 1801109
1801085 1801086
1801085 1801108
1801085 1801109
1801086 1801087
1801086 1801087
1801087 1801089
1801087 1801089
1801089 1801090
1801089 1801099
1801089 1801118
1801089 1801090
1801089 1801099
1801089 1801118
1801090 1801092
1801090 1801091
1801090 1801092
1801090 1801099
1801090 1801099
1801090 1801091
1801092 1801099
1801092 1801118
1801092 1801099
1801092 1801118
1801097 1801111
1801097 1801111
1801098 1801103
1801098 1801103
1801099 1801118
1801099 1801118
1801100 1811225
1801100 1811226
1801100 1811225
1801100 1811226
1801101 1801102
1801101 1801131
1801101 1801102
1801101 1801131
1801102 1801103
1801102 1801103
1801102 1811228
1801102 1811228
1801103 1811227
1801103 1811227
1801110 1801112
1801110 1801123
1801110 1801112
1801110 1801123
1801111 1801112
1801111 1801116
1801111 1801112
1801111 1801116
1801112 1801115
1801112 1801123
1801112 1801123
1801112 1801115
1801113 1801114
1801113 1801114
1801114 1801115
1801114 1801115
1801114 1801120
1801114 1801120
1801115 1801116
1801115 1801116
1801115 1801124
1801115 1801124
1801116 1801117
1801116 1801117
1801118 1809147
1801118 1809147
1801119 1801121
1801119 1801120
1801119 1801120
1801119 1801121
1801119 1801159
1801119 1801159
1801120 1801124
1801120 1801159
1801120 1801124
1801120 1801159
1801121 1801134
1801121 1801134
1801121 1801137
1801121 1801137
1801131 1801177
1801131 1801177
1801137 1801159
1801137 1801159
1801169 1801170
1801169 1801170
1801170 1801179
1801170 1801173
1801170 1801179
1801170 1801173
1801176 1801183
1801176 1801183
1801177 1801178
1801177 1801178
1801178 1801184
1801178 1801184
1801181 1801184
1801181 1801182
1801181 1801184
1801181 1801182
1801182 1801183
1801182 1801183
1608639 1608640
1608639 1608640
1608791 1611255
1608791 1611255
1478687 1478688
1478687 1478689
1478687 1478690
1478687 1478692
1478687 1478688
1478687 1478689
1478687 1478692
1478687 1478690
1478689 1478700
1478689 1478700
1478700 1497437
1478700 1497437
1478716 1478717
1478716 1478747
1478716 1478748
1478716 1478717
1478716 1478747
1478716 1478748
1478717 1494642
1478717 1494679
1478717 1494642
1478717 1494679
1478751 1478752
1478751 1478753
1478751 1478752
1478751 1478753
1478752 1494582
1478752 1494641
1478752 1494582
1478752 1494641
1478753 1478755
1478753 1478755
1478755 1494641
1478755 1478757
1478755 1494641
1478755 1478757
1478762 1478800
1478762 1478800
1478777 1478778
1478777 1478779
1478777 1478784
1478777 1478786
1478777 1478778
1478777 1478784
1478777 1478779
1478777 1478786
1478778 1478791
1478778 1494698
1478778 1494714
1478778 1478791
1478778 1494714
1478778 1494698
1478779 1478780
1478779 1478787
1478779 1478780
1478779 1478787
1478780 1494714
1478780 1494714
1478780 1494718
1478780 1494718
1478782 1478784
1478782 1478784
1478783 1478800
1478783 1478785
1478783 1478800
1478783 1478785
1478784 1478785
1478784 1478785
1478785 1478799
1478785 1478801
1478785 1478799
1478785 1478801
1478791 1494671
1478791 1494681
1478791 1494723
1478791 1494671
1478791 1494681
1478791 1494723
1478792 1494759
1478792 1494761
1478792 1494759
1478792 1494761
1478800 1478801
1478800 1478822
1478800 1478801
1478800 1478822
1478801 1478802
1478801 1478823
1478801 1478802
1478801 1478823
1478802 1478805
1478802 1478805
1478802 1478835
1478802 1497214
1478802 1497214
1478802 1478835
1478803 1478804
1478803 1478804
1478804 1478805
1478804 1478805
1478805 1478808
1478805 1478808
1478806 1478807
1478806 1494711
1478806 1478807
1478806 1494711
1478807 1478818
1478807 1478818
1478808 1478811
1478808 1478835
1478808 1478811
1478808 1478816
1478808 1478835
1478808 1478816
1478809 1478810
1478809 1478838
1478809 1478810
1478809 1478838
1609067 1609069
1609067 1609068
1609067 1609068
1609067 1609069
1478810 1497214
1478810 1478839
1478810 1497213
1478810 1497214
1478810 1497213
1478810 1478839
1609068 1610780
1609068 1610780
1478811 1478812
1478811 1478812
1478811 1478813
1478811 1478813
1609069 1610778
1609069 1610778
1478813 1478814
1478813 1478817
1478813 1478814
1478813 1478817
1478814 1478819
1478814 1478819
1478815 1478816
1478815 1478816
1478815 1478850
1478815 1478886
1478815 1497216
1478815 1478850
1478815 1478886
1478815 1497216
1478816 1478851
1478816 1497222
1478816 1478851
1478816 1497222
1478817 1478849
1478817 1478851
1478817 1478851
1478817 1478849
1478819 1478846
1478819 1478846
1478822 1478823
1478822 1478823
1478823 1478824
1478823 1478824
1478824 1497214
1478824 1478825
1478824 1478827
1478824 1497214
1478824 1478825
1478824 1478827
1478825 1497213
1478825 1497213
1478834 1478835
1478834 1478839
1478834 1478835
1478834 1478839
1478834 1478841
1478834 1478843
1478834 1478843
1478834 1478841
1478835 1492143
1478835 1492143
1478838 1478839
1478838 1478840
1478838 1478852
1478838 1478839
1478838 1478840
1478838 1478852
1478839 1478841
1478839 1478841
1478840 1478841
1478840 1478841
1478840 1478842
1478840 1478852
1478840 1478852
1478840 1478842
1478841 1478843
1478841 1478843
1478842 1478843
1478842 1478852
1478842 1478843
1478842 1478852
1478842 1488322
1478842 1494684
1478842 1488322
1478842 1494684
1478843 1497215
1478843 1497215
1478845 1478846
1478845 1478846
1478847 1478850
1478847 1478848
1478847 1478850
1478847 1478888
1478847 1478895
1478847 1478848
1478847 1478888
1478847 1478895
1478848 1478889
1478848 1488422
1478848 1499210
1478848 1488422
1478848 1499210
1478848 1478889
1478850 1478851
1478850 1478883
1478850 1478851
1478850 1478883
1478851 1488423
1478851 1488423
1478854 1478872
1478854 1478872
1478872 1497216
1478872 1497216
1478872 1497374
1478872 1499124
1478872 1497374
1478872 1499124
1478881 1478888
1478881 1478882
1478881 1478888
1478881 1478892
1478881 1478882
1478881 1478892
1478883 1478887
1478883 1478887
1478886 1478893
1478886 1487717
1478886 1496843
1478886 1478893
1478886 1487717
1478886 1496843
1478887 1478895
1478887 1478893
1478887 1478895
1478887 1478893
1478888 1478889
1478888 1478893
1478888 1478889
1478888 1478893
1478889 1500160
1478889 1500160
1478890 1478891
1478890 1488291
1478890 1488316
1478890 1478891
1478890 1488291
1478890 1488316
1478891 1488313
1478891 1488315
1478891 1488313
1478891 1488315
1478892 1498749
1478892 1498750
1478892 1498749
1478892 1498750
1478893 1478896
1478893 1478896
1478896 1478897
1478896 1478897
1478901 1478902
1478901 1478913
1478901 1478913
1478901 1478902
1478912 1492140
1478912 1492352
1478912 1492140
1478912 1492352
1478927 1478928
1478927 1478929
1478927 1478935
1478927 1478928
1478927 1478929
1478927 1478935
1609626 1609627
1609626 1609627
1609627 1609628
1609627 1609628
1609637 1609639
1609637 1609638
1609637 1609638
1609637 1609639
1609639 1609650
1609639 1609650
1609674 1609675
1609674 1609675
1609675 1609701
1609675 1609701
1609676 1609679
1609676 1609677
1609676 1609677
1609676 1609679
1609677 1609678
1609677 1609678
1609731 1609732
1609731 1609735
1609731 1609732
1609731 1609735
1609733 1609734
1609733 1609734
1609734 1609735
1609734 1609735
1609757 1609899
1609757 1609899
20739 20740
20739 20741
20739 39259
20739 20740
20739 20741
20739 39259
20740 20741
20740 39218
20740 20741
20740 39218
20741 39217
20741 39217
20744 20753
20744 27487
20744 27750
20744 27813
20744 20753
20744 27487
20744 27750
20744 27813
20765 41777
20765 41777
1609935 1609955
1609935 1609955
1609959 1609960
1609959 1609964
1609959 1609960
1609959 1609964
1610035 1611434
1610035 1611434
20890 20896
20890 143598
20890 20896
20890 143598
1809145 1811279
1809145 1811279
1610117 1610118
1610117 1610118
1810423 1810424
1810423 1810424
1810423 1811239
1810423 1811239
1810424 1811282
1810424 1811282
1811221 1811224
1811221 1811224
1811238 1811239
1811238 1811283
1811238 1811239
1811238 1811283
1811279 1811280
1811279 1811281
1811279 1811280
1811279 1811281
21512 39487
21512 39487
21516 21517
21516 21517
21635 21636
21635 36834
21635 21636
21635 36834
108880 108881
108880 137646
108880 108881
108880 137646
108881 108882
108881 115078
108881 137494
108881 108882
108881 115078
108881 137494
108882 108883
108882 108919
108882 109703
108882 109713
108882 137494
108882 137494
108882 108883
108882 108919
108882 109703
108882 109713
108883 108919
108883 108989
108883 108919
108883 108989
21645 21646
21645 39498
21645 21646
21645 39498
108917 108989
108917 108918
108917 108927
108917 108959
108917 108989
108917 108918
108917 108927
108917 108959
108918 108927
108918 109491
108918 109497
108918 108927
108918 109491
108918 109497
108919 109175
108919 109605
108919 109175
108919 109605
108927 108928
108927 108951
108927 108928
108927 108951
108928 108929
108928 108939
108928 108944
108928 108929
108928 108939
108928 108944
108959 108989
108959 108989
108959 109013
108959 109499
108959 109013
108959 109499
108989 109011
108989 109011
109013 109174
109013 109440
109013 109174
109013 109440
109041 109042
109041 109043
109041 138155
109041 139739
109041 109042
109041 109043
109041 138155
109041 139739
109042 139291
109042 139291
109043 139821
109043 139822
109043 139821
109043 139822
109044 109045
109044 109046
109044 109063
109044 109064
109044 109045
109044 109046
109044 109063
109044 109064
109045 145636
109045 109049
109045 109052
109045 145636
109045 109049
109045 109052
109046 109050
109046 109052
109046 109052
109046 109050
109047 109048
109047 109067
109047 109048
109047 109067
109048 109053
109048 109053
109049 109050
109049 109050
109050 109051
109050 109051
109051 109054
109051 109054
109053 109068
109053 109074
109053 109068
109053 109074
109054 109055
109054 109055
109056 109057
109056 109058
109056 139823
109056 139829
109056 109057
109056 109058
109056 139823
109056 139829
109057 109058
109057 109066
109057 145632
109057 109058
109057 145632
109057 109066
109058 109065
109058 139829
109058 139829
109058 109065
109059 109060
109059 109060
109060 109061
109060 109062
109060 139828
109060 109061
109060 109062
109060 139828
109062 109071
109062 109070
109062 109071
109062 109070
109063 109064
109063 109066
109063 109064
109063 109066
109064 109066
109064 109067
109064 109067
109064 109066
109065 109066
109065 109066
109065 109070
109065 109070
109067 109068
109067 109068
109071 109072
109071 140924
109071 109072
109071 140924
109072 109073
109072 109267
109072 139833
109072 109073
109072 109267
109072 139833
109073 109283
109073 109290
109073 109283
109073 109290
109082 109083
109082 109357
109082 1494574
109082 109083
109082 109357
109082 1494574
109083 109084
109083 109084
109084 109348
109084 1494579
109084 109348
109084 1494579
109103 135491
109103 109104
109103 109105
109103 135491
109103 139857
109103 109104
109103 109105
109103 139857
109104 109106
109104 109106
109105 109106
109105 109107
109105 139855
109105 109106
109105 109107
109105 139855
109106 109113
109106 109113
109107 109122
109107 146938
109107 109122
109107 146938
109108 109111
109108 109202
109108 109111
109108 109202
109111 109112
109111 109204
109111 145102
109111 109112
109111 145102
109111 109204
109112 109113
109112 109113
109112 109204
109112 109204
109113 109114
109113 140004
109113 109114
109113 140004
109114 109122
109114 109122
109114 109124
109114 109124
109121 109190
109121 109190
109122 109123
109122 139876
109122 109123
109122 139876
109123 109127
109123 138713
109123 109127
109123 138713
109124 109125
109124 109126
109124 109125
109124 109126
109125 138148
109125 139915
109125 138148
109125 139915
109126 109129
109126 109130
109126 109130
109126 109129
109127 147773
109127 147785
109127 147773
109127 147785
109128 109129
109128 109129
109128 109131
109128 109133
109128 109131
109128 109133
109129 143556
109129 143556
109130 139239
109130 143551
109130 143556
109130 143556
109130 139239
109130 143551
109131 109132
109131 139879
109131 144072
109131 144110
109131 109132
109131 139879
109131 144072
109131 144110
109132 109135
109132 139879
109132 146889
109132 139879
109132 109135
109132 146889
109133 109134
109133 143533
109133 109134
109133 143533
109134 109135
109134 109135
109134 109172
109134 139228
109134 109172
109134 139228
109135 109313
109135 109317
109135 109313
109135 109317
109159 140004
109159 140004
109172 109173
109172 109258
109172 109173
109172 109258
109173 141284
109173 143527
109173 143528
109173 143527
109173 143528
109173 141284
109180 109188
109180 109188
109187 109188
109187 109188
109188 109189
109188 1494450
109188 109189
109188 1494450
109189 109261
109189 145103
109189 145103
109189 109261
109190 140003
109190 109191
109190 140003
109190 109191
109191 109214
109191 109215
109191 109214
109191 109215
109202 109216
109202 109218
109202 109216
109202 109218
109204 109219
109204 109219
109214 109219
109214 109220
109214 109219
109214 109220
109215 109220
109215 109257
109215 109220
109215 109257
109216 109217
109216 109217
109217 109219
109217 109219
109218 145103
109218 109261
109218 109261
109218 145103
109219 145104
109219 145104
109220 109260
109220 109260
109254 140033
109254 140033
109255 109290
109255 109256
109255 109290
109255 109291
109255 146887
109255 109256
109255 109291
109255 146887
109256 109325
109256 109329
109256 109325
109256 109329
109257 140032
109257 143531
109257 140032
109257 143531
109258 109259
109258 109263
109258 140032
109258 140032
109258 109259
109258 109263
109260 109263
109260 109264
109260 139984
109260 109263
109260 109264
109260 139984
109261 109262
109261 109262
109261 146884
109261 146884
109263 146888
109263 146888
109264 145104
109264 109265
109264 145104
109264 1494473
109264 109265
109264 1494473
109265 139980
109265 139981
109265 139980
109265 139981
109266 109267
109266 109267
109266 109268
109266 109269
109266 109268
109266 109269
109267 144112
109267 144112
109268 109279
109268 109281
109268 109282
109268 109281
109268 109282
109268 109279
109269 146892
109269 146893
109269 146892
109269 146893
109270 109271
109270 109272
109270 139883
109270 109271
109270 109272
109270 139883
109271 109273
109271 109274
109271 139880
109271 109273
109271 109274
109271 139880
109272 109275
109272 109276
109272 109275
109272 109276
109273 147778
109273 147779
109273 147778
109273 147779
109274 109290
109274 109280
109274 109288
109274 109290
109274 109280
109274 109288
109275 109277
109275 109284
109275 109277
109275 109284
109277 109285
109277 109287
109277 109287
109277 109285
109278 109279
109278 147779
109278 109280
109278 109279
109278 109280
109278 147779
109279 144114
109279 144114
109280 109281
109280 109281
109281 143621
109281 143621
109282 143621
109282 143621
109283 109312
109283 144055
109283 144055
109283 109312
109284 109285
109284 109285
109285 109286
109285 109286
109287 109288
109287 109288
109287 109289
109287 109289
109288 109291
109288 109291
109288 109292
109288 109292
109290 109295
109290 109295
109291 109292
109291 109292
109292 109293
109292 109293
109293 109294
109293 109315
109293 109294
109293 109315
109295 109318
109295 109319
109295 109318
109295 109319
109296 109297
109296 109298
109296 109299
109296 109300
109296 109297
109296 109298
109296 109299
109296 109300
109298 109301
109298 109302
109298 109301
109298 109302
109299 109301
109299 109304
109299 109301
109299 109304
109301 109303
109301 109303
109302 109303
109302 109305
109302 109303
109302 109305
109303 109304
109303 109304
109304 109306
109304 109306
109305 109306
109305 109307
109305 109306
109305 109307
109306 109308
109306 109308
109307 109308
109307 109309
109307 109308
109307 109309
109308 109310
109308 109310
109309 109310
109309 109311
109309 109310
109309 109311
109310 109311
109310 109311
109311 109312
109311 109312
109312 109320
109312 109320
109313 109316
109313 146890
109313 109316
109313 146890
109315 146890
109315 146891
109315 146890
109315 146891
109318 109319
109318 109321
109318 109319
109318 109321
109319 109325
109319 109325
109319 109326
109319 109326
109320 109321
109320 109322
109320 109323
109320 109321
109320 109322
109320 109323
109321 109324
109321 109324
109322 146897
109322 146898
109322 146897
109322 146898
109323 109337
109323 109334
109323 109336
109323 109337
109323 109334
109323 109336
109324 109334
109324 109335
109324 109334
109324 109335
109325 109327
109325 109328
109325 109327
109325 109328
109326 109327
109326 109338
109326 109339
109326 109327
109326 109338
109326 109339
109327 109331
109327 109331
109328 109331
109328 109332
109328 109331
109328 109332
109329 109330
109329 109330
109330 109350
109330 109350
109331 109353
109331 139982
109331 109353
109331 139982
109332 139984
109332 109351
109332 139984
109332 109351
109334 109335
109334 109335
109335 146894
109335 146894
109336 109337
109336 109337
109336 146894
109336 146896
109336 146894
109336 146896
109338 109340
109338 146934
109338 109340
109338 146934
109339 109343
109339 109354
109339 109358
109339 109354
109339 109343
109339 109358
109340 109341
109340 147783
109340 109341
109340 147783
109341 109343
109341 109342
109341 109343
109341 109342
109343 109344
109343 109344
109343 109359
109343 109359
109344 146896
109344 146896
109345 109346
109345 109359
109345 109346
109345 109359
109346 109347
109346 109347
109346 109361
109346 109361
109347 146937
109347 146937
109348 109349
109348 1494553
109348 1494621
109348 109349
109348 1494553
109348 1494621
109349 109374
109349 1494581
109349 109374
109349 1494581
109350 109351
109350 109352
109350 109351
109350 109352
109353 146935
109353 146936
109353 146935
109353 146936
109354 109363
109354 139986
109354 109363
109354 139986
109357 144505
109357 144505
109358 109359
109358 109360
109358 109363
109358 109359
109358 109363
109358 109360
109359 109361
109359 109361
109360 109362
109360 109365
109360 109366
109360 109362
109360 109365
109360 109366
109361 109362
109361 109362
109362 109364
109362 109364
109363 139985
109363 139985
109364 109367
109364 109365
109364 109367
109364 109365
109365 109368
109365 109368
109365 109369
109365 109369
109366 109369
109366 145511
109366 109369
109366 145511
109367 109368
109367 109368
109368 109373
109368 109373
109369 109372
109369 109373
109369 109372
109369 109373
109371 109374
109371 1494585
109371 109374
109371 1494585
109372 109373
109372 109373
109374 1494583
109374 1494585
109374 1494585
109374 1494583
109438 109440
109438 109440
109440 109460
109440 109460
109491 137435
109491 137491
109491 140002
109491 137435
109491 140002
109491 137491
22082 22083
22082 22084
22082 22083
22082 22084
22086 22087
22086 22088
22086 22087
22086 22088
22086 24076
22086 24076
22087 22088
22087 22088
22088 33138
22088 33138
22092 22093
22092 38442
22092 22093
22092 38442
22121 22122
22121 38006
22121 22122
22121 38006
22122 22123
22122 22123
22122 38010
22122 38010
22127 22128
22127 22128
22127 38025
22127 38025
22131 22132
22131 38031
22131 22132
22131 38031
22132 22133
22132 38030
22132 22133
22132 38030
22138 22139
22138 38008
22138 22139
22138 38008
22173 22181
22173 22181
112108 112109
112108 139574
112108 112109
112108 139574
112109 139569
112109 139569
22501 22502
22501 22502
22504 22510
22504 39317
22504 22510
22504 39317
22505 22506
22505 31116
22505 31120
22505 22506
22505 31116
22505 31120
22517 22518
22517 22518
22517 22543
22517 22543
22518 22558
22518 22558
22662 22663
22662 22664
22662 23813
22662 31631
22662 22663
22662 22664
22662 31631
22662 23813
115078 137646
115078 137646
115078 141389
115078 142585
115078 142585
115078 141389
1612240 1612241
1612240 1612242
1612240 1612242
1612240 1612241
118443 118444
118443 139237
118443 139287
118443 118444
118443 139237
118443 139287
118444 139286
118444 139292
118444 139286
118444 139292
118446 118447
118446 118447
118447 130525
118447 139206
118447 139210
118447 139206
118447 139210
118447 130525
118465 118466
118465 118466
118466 146735
118466 146738
118466 146743
118466 146735
118466 146738
118466 146743
119003 119006
119003 119102
119003 119006
119003 119102
119006 122515
119006 122515
119069 119102
119069 119098
119069 119102
119069 119098
119098 119102
119098 119102
119102 120736
119102 120736
119109 146736
119109 146736
119358 122774
119358 119359
119358 119367
119358 122774
119358 119359
119358 119367
119359 120327
119359 120379
119359 139272
119359 120327
119359 120379
119359 139272
119375 145850
119375 145850
119378 119379
119378 119443
119378 119646
119378 141486
119378 119379
119378 119443
119378 119646
119378 141486
119434 119646
119434 119646
119443 119444
119443 139621
119443 119444
119443 139621
119444 120501
119444 121261
119444 120501
119444 121261
119646 120379
119646 120379
120327 120380
120327 139581
120327 139581
120327 120380
120379 120419
120379 120419
120380 120381
120380 120383
120380 141483
120380 120381
120380 120383
120380 141483
120383 120384
120383 120417
120383 141484
120383 120384
120383 120417
120383 141484
120417 141486
120417 141486
120501 120502
120501 120878
120501 120502
120501 120878
120502 139237
120502 139237
120502 139623
120502 139624
120502 139623
120502 139624
120736 120737
120736 145850
120736 145850
120736 120737
120737 147624
120737 147824
120737 147824
120737 147624
120878 121264
120878 121276
120878 121264
120878 121276
121261 121263
121261 121276
121261 121276
121261 121263
121263 121407
121263 121409
121263 121409
121263 121407
121264 121417
121264 121460
121264 121417
121264 121460
121276 121288
121276 121296
121276 121288
121276 121296
121288 121310
121288 121331
121288 121310
121288 121331
121296 121407
121296 121407
121296 121408
121296 121408
121407 121410
121407 121418
121407 121410
121407 121418
121409 121410
121409 121410
121417 121499
121417 121520
121417 121499
121417 121520
121418 121419
121418 121419
121419 121460
121419 121460
121419 121484
121419 121484
121460 121706
121460 121706
121484 121494
121484 121706
121484 121706
121484 121494
121494 121520
121494 121520
121499 121783
121499 121783
121520 121706
121520 121706
122041 122042
122041 122050
122041 122055
122041 122042
122041 122055
122041 122050
122050 122051
122050 122088
122050 139910
122050 122051
122050 122088
122050 139910
122051 143533
122051 122055
122051 122055
122051 143533
122055 127336
122055 140559
122055 127336
122055 140559
122515 146735
122515 146738
122515 146735
122515 146738
122515 146739
122515 146739
126074 126075
126074 126467
126074 127526
126074 126075
126074 127526
126074 126467
126075 127385
126075 127500
126075 127526
126075 127526
126075 127500
126075 127385
126154 127385
126154 127385
126466 126467
126466 126467
126466 126469
126466 126471
126466 126469
126466 126471
126467 142980
126467 142982
126467 142982
126467 142980
126469 126474
126469 126474
126471 126473
126471 136728
126471 126473
126471 136728
126473 126474
126473 126474
126473 126951
126473 126951
126474 127526
126474 127526
126647 126718
126647 126951
126647 126951
126647 126718
126718 145268
126718 136728
126718 136726
126718 136728
126718 145268
126718 136726
127336 143556
127336 143556
127336 143557
127336 143557
127385 127484
127385 127484
127484 127526
127484 127526
127484 127665
127484 127665
127500 136962
127500 142114
127500 142983
127500 136962
127500 142983
127500 142114
127712 127713
127712 127717
127712 127713
127712 127717
127713 127720
127713 127726
127713 127720
127713 127726
127716 127719
127716 127719
127717 139461
127717 139589
127717 139461
127717 139589
127718 127719
127718 127719
127719 127747
127719 139601
127719 127747
127719 139601
127720 139250
127720 139538
127720 144778
127720 139538
127720 139250
127720 144778
127726 139587
127726 139587
127747 139599
127747 139599
127784 127785
127784 127833
127784 139617
127784 127785
127784 127833
127784 139617
127785 139615
127785 139615
127787 127846
127787 139583
127787 139583
127787 127846
127797 139589
127797 127798
127797 127807
127797 139550
127797 139589
127797 127798
127797 127807
127797 139550
127798 127846
127798 127846
127807 127846
127807 127836
127807 127846
127807 139551
127807 139551
127807 127836
127810 127833
127810 127811
127810 127833
127810 127834
127810 139612
127810 127811
127810 127834
127810 139612
127811 139607
127811 139616
127811 139607
127811 139616
127831 127836
127831 127834
127831 127832
127831 127834
127831 127836
127831 139592
127831 127832
127831 139592
127832 127835
127832 139593
127832 139597
127832 139593
127832 139597
127832 127835
127833 139618
127833 139618
127834 127835
127834 139607
127834 139607
127834 127835
127836 139591
127836 139593
127836 139593
127836 139591
127846 139593
127846 139593
25631 25740
25631 25632
25631 25632
25631 25740
25750 38232
25750 25751
25750 38232
25750 25751
25756 25757
25756 25799
25756 25757
25756 25799
25759 25760
25759 25863
25759 25760
25759 25863
25760 25764
25760 25764
129689 139939
129689 139939
31207 39311
31207 39311
31208 39321
31208 31209
31208 39321
31208 31209
25851 25877
25851 25877
25862 27519
25862 27520
25862 27519
25862 27520
25863 25864
25863 25870
25863 27547
25863 27547
25863 25864
25863 25870
25864 25869
25864 25869
25866 27586
25866 25870
25866 25867
25866 25870
25866 27586
25866 25867
25867 25868
25867 27590
25867 25868
25867 27590
25868 25869
25868 25869
25870 27548
25870 27548
25871 25872
25871 25873
25871 26494
25871 25872
25871 25873
25871 26494
25872 25877
25872 25877
25872 27893
25872 27926
25872 27893
25872 27926
25926 25927
25926 25927
25926 25929
25926 25929
25927 25938
25927 25928
25927 25938
25927 25928
25928 25929
25928 25929
31237 31238
31237 31265
31237 31266
31237 31238
31237 31265
31237 31266
